
restart = plot
#wannier_plot = T

begin projections
   Bi:pz;px;py
   Se:pz;px;py
end projections

exclude_bands 1-34, 67-96
dis_win_min  =  -3
dis_win_max  =  10
dis_froz_min =  -3
dis_froz_max =   6

dis_num_iter =   0
num_iter     =   0

write_hr = T
use_ws_distance = T

bands_plot = T
begin kpoint_path
   G   0.0000   0.0000   0.0000   L   0.5000   0.0000   0.0000
   L   0.5000   0.0000   0.0000   B1  0.5000   0.2424  -0.2424
   B   0.7576   0.5000   0.2424   Z   0.5000   0.5000   0.5000
   Z   0.5000   0.5000   0.5000   G   0.0000   0.0000   0.0000
   G   0.0000   0.0000   0.0000   X   0.3712   0.0000  -0.3712
   Q   0.6288   0.3712   0.0000   F   0.5000   0.5000   0.0000
   F   0.5000   0.5000   0.0000   P1  0.6614   0.6614   0.1772
   P1  0.6614   0.6614   0.1772   Z   0.5000   0.5000   0.5000
   L   0.5000   0.0000   0.0000   P   0.8228   0.3386   0.3386
end kpoint_path
bands_num_points = 40
bands_plot_format gnuplot xmgrace

# This part was generated automatically by VASP
num_bands = 32
num_wann = 30
spinors = .true.
begin unit_cell_cart
     9.5419442    -2.0620671    -0.0419870
     9.5419442     2.0620671    -0.0419870
     9.1119217     0.0000000     3.5036361
end unit_cell_cart
begin atoms_cart
Bi      16.8971770    -0.0000001     2.0493341
Bi      11.2986356    -0.0000001     1.3703283
Se       0.0000000     0.0000000     0.0000000
Se      22.2573594    -0.0000001     2.6994312
Se       5.9384515     0.0000000     0.7202310
end atoms_cart
mp_grid =     6     6     6
begin kpoints
      0.083333333333      0.083333333333      0.083333333333
      0.250000000000      0.083333333333      0.083333333333
      0.416666666667      0.083333333333      0.083333333333
     -0.416666666667      0.083333333333      0.083333333333
     -0.250000000000      0.083333333333      0.083333333333
     -0.083333333333      0.083333333333      0.083333333333
      0.083333333333      0.250000000000      0.083333333333
      0.250000000000      0.250000000000      0.083333333333
      0.416666666667      0.250000000000      0.083333333333
     -0.416666666667      0.250000000000      0.083333333333
     -0.250000000000      0.250000000000      0.083333333333
     -0.083333333333      0.250000000000      0.083333333333
      0.083333333333      0.416666666667      0.083333333333
      0.250000000000      0.416666666667      0.083333333333
      0.416666666667      0.416666666667      0.083333333333
     -0.416666666667      0.416666666667      0.083333333333
     -0.250000000000      0.416666666667      0.083333333333
     -0.083333333333      0.416666666667      0.083333333333
      0.083333333333     -0.416666666667      0.083333333333
      0.250000000000     -0.416666666667      0.083333333333
      0.416666666667     -0.416666666667      0.083333333333
     -0.416666666667     -0.416666666667      0.083333333333
     -0.250000000000     -0.416666666667      0.083333333333
     -0.083333333333     -0.416666666667      0.083333333333
      0.083333333333     -0.250000000000      0.083333333333
      0.250000000000     -0.250000000000      0.083333333333
      0.416666666667     -0.250000000000      0.083333333333
     -0.416666666667     -0.250000000000      0.083333333333
     -0.250000000000     -0.250000000000      0.083333333333
     -0.083333333333     -0.250000000000      0.083333333333
      0.083333333333     -0.083333333333      0.083333333333
      0.250000000000     -0.083333333333      0.083333333333
      0.416666666667     -0.083333333333      0.083333333333
     -0.416666666667     -0.083333333333      0.083333333333
     -0.250000000000     -0.083333333333      0.083333333333
     -0.083333333333     -0.083333333333      0.083333333333
      0.083333333333      0.083333333333      0.250000000000
      0.250000000000      0.083333333333      0.250000000000
      0.416666666667      0.083333333333      0.250000000000
     -0.416666666667      0.083333333333      0.250000000000
     -0.250000000000      0.083333333333      0.250000000000
     -0.083333333333      0.083333333333      0.250000000000
      0.083333333333      0.250000000000      0.250000000000
      0.250000000000      0.250000000000      0.250000000000
      0.416666666667      0.250000000000      0.250000000000
     -0.416666666667      0.250000000000      0.250000000000
     -0.250000000000      0.250000000000      0.250000000000
     -0.083333333333      0.250000000000      0.250000000000
      0.083333333333      0.416666666667      0.250000000000
      0.250000000000      0.416666666667      0.250000000000
      0.416666666667      0.416666666667      0.250000000000
     -0.416666666667      0.416666666667      0.250000000000
     -0.250000000000      0.416666666667      0.250000000000
     -0.083333333333      0.416666666667      0.250000000000
      0.083333333333     -0.416666666667      0.250000000000
      0.250000000000     -0.416666666667      0.250000000000
      0.416666666667     -0.416666666667      0.250000000000
     -0.416666666667     -0.416666666667      0.250000000000
     -0.250000000000     -0.416666666667      0.250000000000
     -0.083333333333     -0.416666666667      0.250000000000
      0.083333333333     -0.250000000000      0.250000000000
      0.250000000000     -0.250000000000      0.250000000000
      0.416666666667     -0.250000000000      0.250000000000
     -0.416666666667     -0.250000000000      0.250000000000
     -0.250000000000     -0.250000000000      0.250000000000
     -0.083333333333     -0.250000000000      0.250000000000
      0.083333333333     -0.083333333333      0.250000000000
      0.250000000000     -0.083333333333      0.250000000000
      0.416666666667     -0.083333333333      0.250000000000
     -0.416666666667     -0.083333333333      0.250000000000
     -0.250000000000     -0.083333333333      0.250000000000
     -0.083333333333     -0.083333333333      0.250000000000
      0.083333333333      0.083333333333      0.416666666667
      0.250000000000      0.083333333333      0.416666666667
      0.416666666667      0.083333333333      0.416666666667
     -0.416666666667      0.083333333333      0.416666666667
     -0.250000000000      0.083333333333      0.416666666667
     -0.083333333333      0.083333333333      0.416666666667
      0.083333333333      0.250000000000      0.416666666667
      0.250000000000      0.250000000000      0.416666666667
      0.416666666667      0.250000000000      0.416666666667
     -0.416666666667      0.250000000000      0.416666666667
     -0.250000000000      0.250000000000      0.416666666667
     -0.083333333333      0.250000000000      0.416666666667
      0.083333333333      0.416666666667      0.416666666667
      0.250000000000      0.416666666667      0.416666666667
      0.416666666667      0.416666666667      0.416666666667
     -0.416666666667      0.416666666667      0.416666666667
     -0.250000000000      0.416666666667      0.416666666667
     -0.083333333333      0.416666666667      0.416666666667
      0.083333333333     -0.416666666667      0.416666666667
      0.250000000000     -0.416666666667      0.416666666667
      0.416666666667     -0.416666666667      0.416666666667
     -0.416666666667     -0.416666666667      0.416666666667
     -0.250000000000     -0.416666666667      0.416666666667
     -0.083333333333     -0.416666666667      0.416666666667
      0.083333333333     -0.250000000000      0.416666666667
      0.250000000000     -0.250000000000      0.416666666667
      0.416666666667     -0.250000000000      0.416666666667
     -0.416666666667     -0.250000000000      0.416666666667
     -0.250000000000     -0.250000000000      0.416666666667
     -0.083333333333     -0.250000000000      0.416666666667
      0.083333333333     -0.083333333333      0.416666666667
      0.250000000000     -0.083333333333      0.416666666667
      0.416666666667     -0.083333333333      0.416666666667
     -0.416666666667     -0.083333333333      0.416666666667
     -0.250000000000     -0.083333333333      0.416666666667
     -0.083333333333     -0.083333333333      0.416666666667
      0.083333333333      0.083333333333     -0.416666666667
      0.250000000000      0.083333333333     -0.416666666667
      0.416666666667      0.083333333333     -0.416666666667
     -0.416666666667      0.083333333333     -0.416666666667
     -0.250000000000      0.083333333333     -0.416666666667
     -0.083333333333      0.083333333333     -0.416666666667
      0.083333333333      0.250000000000     -0.416666666667
      0.250000000000      0.250000000000     -0.416666666667
      0.416666666667      0.250000000000     -0.416666666667
     -0.416666666667      0.250000000000     -0.416666666667
     -0.250000000000      0.250000000000     -0.416666666667
     -0.083333333333      0.250000000000     -0.416666666667
      0.083333333333      0.416666666667     -0.416666666667
      0.250000000000      0.416666666667     -0.416666666667
      0.416666666667      0.416666666667     -0.416666666667
     -0.416666666667      0.416666666667     -0.416666666667
     -0.250000000000      0.416666666667     -0.416666666667
     -0.083333333333      0.416666666667     -0.416666666667
      0.083333333333     -0.416666666667     -0.416666666667
      0.250000000000     -0.416666666667     -0.416666666667
      0.416666666667     -0.416666666667     -0.416666666667
     -0.416666666667     -0.416666666667     -0.416666666667
     -0.250000000000     -0.416666666667     -0.416666666667
     -0.083333333333     -0.416666666667     -0.416666666667
      0.083333333333     -0.250000000000     -0.416666666667
      0.250000000000     -0.250000000000     -0.416666666667
      0.416666666667     -0.250000000000     -0.416666666667
     -0.416666666667     -0.250000000000     -0.416666666667
     -0.250000000000     -0.250000000000     -0.416666666667
     -0.083333333333     -0.250000000000     -0.416666666667
      0.083333333333     -0.083333333333     -0.416666666667
      0.250000000000     -0.083333333333     -0.416666666667
      0.416666666667     -0.083333333333     -0.416666666667
     -0.416666666667     -0.083333333333     -0.416666666667
     -0.250000000000     -0.083333333333     -0.416666666667
     -0.083333333333     -0.083333333333     -0.416666666667
      0.083333333333      0.083333333333     -0.250000000000
      0.250000000000      0.083333333333     -0.250000000000
      0.416666666667      0.083333333333     -0.250000000000
     -0.416666666667      0.083333333333     -0.250000000000
     -0.250000000000      0.083333333333     -0.250000000000
     -0.083333333333      0.083333333333     -0.250000000000
      0.083333333333      0.250000000000     -0.250000000000
      0.250000000000      0.250000000000     -0.250000000000
      0.416666666667      0.250000000000     -0.250000000000
     -0.416666666667      0.250000000000     -0.250000000000
     -0.250000000000      0.250000000000     -0.250000000000
     -0.083333333333      0.250000000000     -0.250000000000
      0.083333333333      0.416666666667     -0.250000000000
      0.250000000000      0.416666666667     -0.250000000000
      0.416666666667      0.416666666667     -0.250000000000
     -0.416666666667      0.416666666667     -0.250000000000
     -0.250000000000      0.416666666667     -0.250000000000
     -0.083333333333      0.416666666667     -0.250000000000
      0.083333333333     -0.416666666667     -0.250000000000
      0.250000000000     -0.416666666667     -0.250000000000
      0.416666666667     -0.416666666667     -0.250000000000
     -0.416666666667     -0.416666666667     -0.250000000000
     -0.250000000000     -0.416666666667     -0.250000000000
     -0.083333333333     -0.416666666667     -0.250000000000
      0.083333333333     -0.250000000000     -0.250000000000
      0.250000000000     -0.250000000000     -0.250000000000
      0.416666666667     -0.250000000000     -0.250000000000
     -0.416666666667     -0.250000000000     -0.250000000000
     -0.250000000000     -0.250000000000     -0.250000000000
     -0.083333333333     -0.250000000000     -0.250000000000
      0.083333333333     -0.083333333333     -0.250000000000
      0.250000000000     -0.083333333333     -0.250000000000
      0.416666666667     -0.083333333333     -0.250000000000
     -0.416666666667     -0.083333333333     -0.250000000000
     -0.250000000000     -0.083333333333     -0.250000000000
     -0.083333333333     -0.083333333333     -0.250000000000
      0.083333333333      0.083333333333     -0.083333333333
      0.250000000000      0.083333333333     -0.083333333333
      0.416666666667      0.083333333333     -0.083333333333
     -0.416666666667      0.083333333333     -0.083333333333
     -0.250000000000      0.083333333333     -0.083333333333
     -0.083333333333      0.083333333333     -0.083333333333
      0.083333333333      0.250000000000     -0.083333333333
      0.250000000000      0.250000000000     -0.083333333333
      0.416666666667      0.250000000000     -0.083333333333
     -0.416666666667      0.250000000000     -0.083333333333
     -0.250000000000      0.250000000000     -0.083333333333
     -0.083333333333      0.250000000000     -0.083333333333
      0.083333333333      0.416666666667     -0.083333333333
      0.250000000000      0.416666666667     -0.083333333333
      0.416666666667      0.416666666667     -0.083333333333
     -0.416666666667      0.416666666667     -0.083333333333
     -0.250000000000      0.416666666667     -0.083333333333
     -0.083333333333      0.416666666667     -0.083333333333
      0.083333333333     -0.416666666667     -0.083333333333
      0.250000000000     -0.416666666667     -0.083333333333
      0.416666666667     -0.416666666667     -0.083333333333
     -0.416666666667     -0.416666666667     -0.083333333333
     -0.250000000000     -0.416666666667     -0.083333333333
     -0.083333333333     -0.416666666667     -0.083333333333
      0.083333333333     -0.250000000000     -0.083333333333
      0.250000000000     -0.250000000000     -0.083333333333
      0.416666666667     -0.250000000000     -0.083333333333
     -0.416666666667     -0.250000000000     -0.083333333333
     -0.250000000000     -0.250000000000     -0.083333333333
     -0.083333333333     -0.250000000000     -0.083333333333
      0.083333333333     -0.083333333333     -0.083333333333
      0.250000000000     -0.083333333333     -0.083333333333
      0.416666666667     -0.083333333333     -0.083333333333
     -0.416666666667     -0.083333333333     -0.083333333333
     -0.250000000000     -0.083333333333     -0.083333333333
     -0.083333333333     -0.083333333333     -0.083333333333
end kpoints
