Tin - alpha  [FCC,FCC,cF8] (STD_PRIM doi
   1.00000000000000     
     0.0000000000000000    3.2446000578666698    3.2446000578666698
     3.2446000578666698    0.0000000000000000    3.2446000578666698
     3.2446000578666698    3.2446000578666698    0.0000000000000000
   Sn
     2
Direct
  0.0000000000000000  0.0000000000000000  0.0000000000000000
  0.2500000000000000  0.2500000000000000  0.2500000000000000
 
  0.00000000E+00  0.00000000E+00  0.00000000E+00
  0.00000000E+00  0.00000000E+00  0.00000000E+00
