
restart = plot
#wannier_plot = T

exclude_bands 1-10, 19-48
begin projections
   Sn:s;pz;px;py
end projections

dis_win_min  =  -6
dis_win_max  =  15
#dis_froz_min =  -6
#dis_froz_max =  10

dis_num_iter =   0
num_iter     =   0

#dis_mix_ratio   = 0.3
#hr_plot= T
write_hr = T
use_ws_distance = T

bands_plot = T
begin kpoint_path
   Γ   0.0000   0.0000   0.0000   X   0.5000   0.0000   0.5000
   X   0.5000   0.0000   0.5000   W   0.5000   0.2500   0.7500
   W   0.5000   0.2500   0.7500   K   0.3750   0.3750   0.7500
   K   0.3750   0.3750   0.7500   Γ   0.0000   0.0000   0.0000
   Γ   0.0000   0.0000   0.0000   L   0.5000   0.5000   0.5000
   L   0.5000   0.5000   0.5000   U   0.6250   0.2500   0.6250
   U   0.6250   0.2500   0.6250   W   0.5000   0.2500   0.7500
   W   0.5000   0.2500   0.7500   L   0.5000   0.5000   0.5000
   L   0.5000   0.5000   0.5000   K   0.3750   0.3750   0.7500
   U   0.6250   0.2500   0.6250   X   0.5000   0.0000   0.5000
end kpoint_path
bands_num_points = 40
bands_plot_format gnuplot xmgrace

# This part was generated automatically by VASP
num_bands = 8
num_wann = 8
begin unit_cell_cart
     0.0000000     3.2446001     3.2446001
     3.2446001     0.0000000     3.2446001
     3.2446001     3.2446001     0.0000000
end unit_cell_cart
begin atoms_cart
Sn       0.0000000     0.0000000     0.0000000
Sn       1.6223000     1.6223000     1.6223000
end atoms_cart
mp_grid =    10    10    10
begin kpoints
      0.050000000000      0.050000000000      0.050000000000
      0.150000000000      0.050000000000      0.050000000000
      0.250000000000      0.050000000000      0.050000000000
      0.350000000000      0.050000000000      0.050000000000
      0.450000000000      0.050000000000      0.050000000000
     -0.450000000000      0.050000000000      0.050000000000
     -0.350000000000      0.050000000000      0.050000000000
     -0.250000000000      0.050000000000      0.050000000000
     -0.150000000000      0.050000000000      0.050000000000
     -0.050000000000      0.050000000000      0.050000000000
      0.150000000000      0.150000000000      0.050000000000
      0.250000000000      0.150000000000      0.050000000000
      0.350000000000      0.150000000000      0.050000000000
      0.450000000000      0.150000000000      0.050000000000
     -0.450000000000      0.150000000000      0.050000000000
     -0.350000000000      0.150000000000      0.050000000000
     -0.250000000000      0.150000000000      0.050000000000
     -0.150000000000      0.150000000000      0.050000000000
     -0.050000000000      0.150000000000      0.050000000000
      0.250000000000      0.250000000000      0.050000000000
      0.350000000000      0.250000000000      0.050000000000
      0.450000000000      0.250000000000      0.050000000000
     -0.450000000000      0.250000000000      0.050000000000
     -0.350000000000      0.250000000000      0.050000000000
     -0.250000000000      0.250000000000      0.050000000000
     -0.150000000000      0.250000000000      0.050000000000
     -0.050000000000      0.250000000000      0.050000000000
      0.350000000000      0.350000000000      0.050000000000
      0.450000000000      0.350000000000      0.050000000000
     -0.450000000000      0.350000000000      0.050000000000
     -0.350000000000      0.350000000000      0.050000000000
     -0.250000000000      0.350000000000      0.050000000000
     -0.150000000000      0.350000000000      0.050000000000
     -0.050000000000      0.350000000000      0.050000000000
      0.450000000000      0.450000000000      0.050000000000
     -0.450000000000      0.450000000000      0.050000000000
     -0.350000000000      0.450000000000      0.050000000000
     -0.250000000000      0.450000000000      0.050000000000
     -0.150000000000      0.450000000000      0.050000000000
     -0.050000000000      0.450000000000      0.050000000000
     -0.450000000000     -0.450000000000      0.050000000000
     -0.350000000000     -0.450000000000      0.050000000000
     -0.250000000000     -0.450000000000      0.050000000000
     -0.150000000000     -0.450000000000      0.050000000000
     -0.350000000000     -0.350000000000      0.050000000000
     -0.250000000000     -0.350000000000      0.050000000000
     -0.150000000000     -0.350000000000      0.050000000000
     -0.250000000000     -0.250000000000      0.050000000000
     -0.150000000000     -0.250000000000      0.050000000000
     -0.150000000000     -0.150000000000      0.050000000000
      0.150000000000      0.150000000000      0.150000000000
      0.250000000000      0.150000000000      0.150000000000
      0.350000000000      0.150000000000      0.150000000000
      0.450000000000      0.150000000000      0.150000000000
     -0.450000000000      0.150000000000      0.150000000000
     -0.350000000000      0.150000000000      0.150000000000
     -0.250000000000      0.150000000000      0.150000000000
     -0.150000000000      0.150000000000      0.150000000000
      0.250000000000      0.250000000000      0.150000000000
      0.350000000000      0.250000000000      0.150000000000
      0.450000000000      0.250000000000      0.150000000000
     -0.450000000000      0.250000000000      0.150000000000
     -0.350000000000      0.250000000000      0.150000000000
     -0.250000000000      0.250000000000      0.150000000000
     -0.150000000000      0.250000000000      0.150000000000
      0.350000000000      0.350000000000      0.150000000000
      0.450000000000      0.350000000000      0.150000000000
     -0.450000000000      0.350000000000      0.150000000000
     -0.350000000000      0.350000000000      0.150000000000
     -0.250000000000      0.350000000000      0.150000000000
     -0.150000000000      0.350000000000      0.150000000000
      0.450000000000      0.450000000000      0.150000000000
     -0.450000000000      0.450000000000      0.150000000000
     -0.350000000000      0.450000000000      0.150000000000
     -0.250000000000      0.450000000000      0.150000000000
     -0.150000000000      0.450000000000      0.150000000000
     -0.450000000000     -0.450000000000      0.150000000000
     -0.350000000000     -0.450000000000      0.150000000000
     -0.250000000000     -0.450000000000      0.150000000000
     -0.350000000000     -0.350000000000      0.150000000000
     -0.250000000000     -0.350000000000      0.150000000000
     -0.250000000000     -0.250000000000      0.150000000000
      0.250000000000      0.250000000000      0.250000000000
      0.350000000000      0.250000000000      0.250000000000
      0.450000000000      0.250000000000      0.250000000000
     -0.450000000000      0.250000000000      0.250000000000
     -0.350000000000      0.250000000000      0.250000000000
     -0.250000000000      0.250000000000      0.250000000000
      0.350000000000      0.350000000000      0.250000000000
      0.450000000000      0.350000000000      0.250000000000
     -0.450000000000      0.350000000000      0.250000000000
     -0.350000000000      0.350000000000      0.250000000000
     -0.250000000000      0.350000000000      0.250000000000
      0.450000000000      0.450000000000      0.250000000000
     -0.450000000000      0.450000000000      0.250000000000
     -0.350000000000      0.450000000000      0.250000000000
     -0.250000000000      0.450000000000      0.250000000000
     -0.450000000000     -0.450000000000      0.250000000000
     -0.350000000000     -0.450000000000      0.250000000000
     -0.350000000000     -0.350000000000      0.250000000000
      0.350000000000      0.350000000000      0.350000000000
      0.450000000000      0.350000000000      0.350000000000
     -0.450000000000      0.350000000000      0.350000000000
     -0.350000000000      0.350000000000      0.350000000000
      0.450000000000      0.450000000000      0.350000000000
     -0.450000000000      0.450000000000      0.350000000000
     -0.350000000000      0.450000000000      0.350000000000
     -0.450000000000     -0.450000000000      0.350000000000
      0.450000000000      0.450000000000      0.450000000000
     -0.450000000000      0.450000000000      0.450000000000
     -0.050000000000     -0.050000000000     -0.050000000000
      0.050000000000      0.150000000000      0.050000000000
      0.050000000000      0.050000000000      0.150000000000
     -0.150000000000     -0.050000000000     -0.050000000000
     -0.050000000000     -0.150000000000     -0.050000000000
     -0.050000000000     -0.050000000000     -0.150000000000
      0.050000000000      0.250000000000      0.050000000000
      0.050000000000      0.050000000000      0.250000000000
     -0.250000000000     -0.050000000000     -0.050000000000
     -0.050000000000     -0.250000000000     -0.050000000000
     -0.050000000000     -0.050000000000     -0.250000000000
      0.050000000000      0.350000000000      0.050000000000
      0.050000000000      0.050000000000      0.350000000000
     -0.350000000000     -0.050000000000     -0.050000000000
     -0.050000000000     -0.350000000000     -0.050000000000
     -0.050000000000     -0.050000000000     -0.350000000000
      0.050000000000      0.450000000000      0.050000000000
      0.050000000000      0.050000000000      0.450000000000
     -0.450000000000     -0.050000000000     -0.050000000000
     -0.050000000000     -0.450000000000     -0.050000000000
     -0.050000000000     -0.050000000000     -0.450000000000
      0.050000000000     -0.450000000000      0.050000000000
      0.050000000000      0.050000000000     -0.450000000000
      0.450000000000     -0.050000000000     -0.050000000000
     -0.050000000000      0.450000000000     -0.050000000000
     -0.050000000000     -0.050000000000      0.450000000000
      0.050000000000     -0.350000000000      0.050000000000
      0.050000000000      0.050000000000     -0.350000000000
      0.350000000000     -0.050000000000     -0.050000000000
     -0.050000000000      0.350000000000     -0.050000000000
     -0.050000000000     -0.050000000000      0.350000000000
      0.050000000000     -0.250000000000      0.050000000000
      0.050000000000      0.050000000000     -0.250000000000
      0.250000000000     -0.050000000000     -0.050000000000
     -0.050000000000      0.250000000000     -0.050000000000
     -0.050000000000     -0.050000000000      0.250000000000
      0.050000000000     -0.150000000000      0.050000000000
      0.050000000000      0.050000000000     -0.150000000000
      0.150000000000     -0.050000000000     -0.050000000000
     -0.050000000000      0.150000000000     -0.050000000000
     -0.050000000000     -0.050000000000      0.150000000000
      0.050000000000     -0.050000000000      0.050000000000
      0.050000000000      0.050000000000     -0.050000000000
      0.050000000000     -0.050000000000     -0.050000000000
     -0.050000000000      0.050000000000     -0.050000000000
     -0.050000000000     -0.050000000000      0.050000000000
      0.050000000000      0.150000000000      0.150000000000
      0.150000000000      0.050000000000      0.150000000000
     -0.150000000000     -0.150000000000     -0.050000000000
     -0.050000000000     -0.150000000000     -0.150000000000
     -0.150000000000     -0.050000000000     -0.150000000000
      0.050000000000      0.250000000000      0.150000000000
      0.150000000000      0.050000000000      0.250000000000
      0.250000000000      0.050000000000      0.150000000000
      0.150000000000      0.250000000000      0.050000000000
      0.050000000000      0.150000000000      0.250000000000
     -0.250000000000     -0.150000000000     -0.050000000000
     -0.050000000000     -0.250000000000     -0.150000000000
     -0.150000000000     -0.050000000000     -0.250000000000
     -0.250000000000     -0.050000000000     -0.150000000000
     -0.150000000000     -0.250000000000     -0.050000000000
     -0.050000000000     -0.150000000000     -0.250000000000
      0.050000000000      0.350000000000      0.150000000000
      0.150000000000      0.050000000000      0.350000000000
      0.350000000000      0.050000000000      0.150000000000
      0.150000000000      0.350000000000      0.050000000000
      0.050000000000      0.150000000000      0.350000000000
     -0.350000000000     -0.150000000000     -0.050000000000
     -0.050000000000     -0.350000000000     -0.150000000000
     -0.150000000000     -0.050000000000     -0.350000000000
     -0.350000000000     -0.050000000000     -0.150000000000
     -0.150000000000     -0.350000000000     -0.050000000000
     -0.050000000000     -0.150000000000     -0.350000000000
      0.050000000000      0.450000000000      0.150000000000
      0.150000000000      0.050000000000      0.450000000000
      0.450000000000      0.050000000000      0.150000000000
      0.150000000000      0.450000000000      0.050000000000
      0.050000000000      0.150000000000      0.450000000000
     -0.450000000000     -0.150000000000     -0.050000000000
     -0.050000000000     -0.450000000000     -0.150000000000
     -0.150000000000     -0.050000000000     -0.450000000000
     -0.450000000000     -0.050000000000     -0.150000000000
     -0.150000000000     -0.450000000000     -0.050000000000
     -0.050000000000     -0.150000000000     -0.450000000000
      0.050000000000     -0.450000000000      0.150000000000
      0.150000000000      0.050000000000     -0.450000000000
     -0.450000000000      0.050000000000      0.150000000000
      0.150000000000     -0.450000000000      0.050000000000
      0.050000000000      0.150000000000     -0.450000000000
      0.450000000000     -0.150000000000     -0.050000000000
     -0.050000000000      0.450000000000     -0.150000000000
     -0.150000000000     -0.050000000000      0.450000000000
      0.450000000000     -0.050000000000     -0.150000000000
     -0.150000000000      0.450000000000     -0.050000000000
     -0.050000000000     -0.150000000000      0.450000000000
      0.050000000000     -0.350000000000      0.150000000000
      0.150000000000      0.050000000000     -0.350000000000
     -0.350000000000      0.050000000000      0.150000000000
      0.150000000000     -0.350000000000      0.050000000000
      0.050000000000      0.150000000000     -0.350000000000
      0.350000000000     -0.150000000000     -0.050000000000
     -0.050000000000      0.350000000000     -0.150000000000
     -0.150000000000     -0.050000000000      0.350000000000
      0.350000000000     -0.050000000000     -0.150000000000
     -0.150000000000      0.350000000000     -0.050000000000
     -0.050000000000     -0.150000000000      0.350000000000
      0.050000000000     -0.250000000000      0.150000000000
      0.150000000000      0.050000000000     -0.250000000000
     -0.250000000000      0.050000000000      0.150000000000
      0.150000000000     -0.250000000000      0.050000000000
      0.050000000000      0.150000000000     -0.250000000000
      0.250000000000     -0.150000000000     -0.050000000000
     -0.050000000000      0.250000000000     -0.150000000000
     -0.150000000000     -0.050000000000      0.250000000000
      0.250000000000     -0.050000000000     -0.150000000000
     -0.150000000000      0.250000000000     -0.050000000000
     -0.050000000000     -0.150000000000      0.250000000000
      0.050000000000     -0.150000000000      0.150000000000
      0.150000000000      0.050000000000     -0.150000000000
     -0.150000000000      0.050000000000      0.150000000000
      0.150000000000     -0.150000000000      0.050000000000
      0.050000000000      0.150000000000     -0.150000000000
      0.150000000000     -0.150000000000     -0.050000000000
     -0.050000000000      0.150000000000     -0.150000000000
     -0.150000000000     -0.050000000000      0.150000000000
      0.150000000000     -0.050000000000     -0.150000000000
     -0.150000000000      0.150000000000     -0.050000000000
     -0.050000000000     -0.150000000000      0.150000000000
      0.050000000000     -0.050000000000      0.150000000000
      0.150000000000      0.050000000000     -0.050000000000
     -0.050000000000      0.050000000000      0.150000000000
      0.150000000000     -0.050000000000      0.050000000000
      0.050000000000      0.150000000000     -0.050000000000
      0.050000000000     -0.150000000000     -0.050000000000
     -0.050000000000      0.050000000000     -0.150000000000
     -0.150000000000     -0.050000000000      0.050000000000
      0.050000000000     -0.050000000000     -0.150000000000
     -0.150000000000      0.050000000000     -0.050000000000
     -0.050000000000     -0.150000000000      0.050000000000
      0.050000000000      0.250000000000      0.250000000000
      0.250000000000      0.050000000000      0.250000000000
     -0.250000000000     -0.250000000000     -0.050000000000
     -0.050000000000     -0.250000000000     -0.250000000000
     -0.250000000000     -0.050000000000     -0.250000000000
      0.050000000000      0.350000000000      0.250000000000
      0.250000000000      0.050000000000      0.350000000000
      0.350000000000      0.050000000000      0.250000000000
      0.250000000000      0.350000000000      0.050000000000
      0.050000000000      0.250000000000      0.350000000000
     -0.350000000000     -0.250000000000     -0.050000000000
     -0.050000000000     -0.350000000000     -0.250000000000
     -0.250000000000     -0.050000000000     -0.350000000000
     -0.350000000000     -0.050000000000     -0.250000000000
     -0.250000000000     -0.350000000000     -0.050000000000
     -0.050000000000     -0.250000000000     -0.350000000000
      0.050000000000      0.450000000000      0.250000000000
      0.250000000000      0.050000000000      0.450000000000
      0.450000000000      0.050000000000      0.250000000000
      0.250000000000      0.450000000000      0.050000000000
      0.050000000000      0.250000000000      0.450000000000
     -0.450000000000     -0.250000000000     -0.050000000000
     -0.050000000000     -0.450000000000     -0.250000000000
     -0.250000000000     -0.050000000000     -0.450000000000
     -0.450000000000     -0.050000000000     -0.250000000000
     -0.250000000000     -0.450000000000     -0.050000000000
     -0.050000000000     -0.250000000000     -0.450000000000
      0.050000000000     -0.450000000000      0.250000000000
      0.250000000000      0.050000000000     -0.450000000000
     -0.450000000000      0.050000000000      0.250000000000
      0.250000000000     -0.450000000000      0.050000000000
      0.050000000000      0.250000000000     -0.450000000000
      0.450000000000     -0.250000000000     -0.050000000000
     -0.050000000000      0.450000000000     -0.250000000000
     -0.250000000000     -0.050000000000      0.450000000000
      0.450000000000     -0.050000000000     -0.250000000000
     -0.250000000000      0.450000000000     -0.050000000000
     -0.050000000000     -0.250000000000      0.450000000000
      0.050000000000     -0.350000000000      0.250000000000
      0.250000000000      0.050000000000     -0.350000000000
     -0.350000000000      0.050000000000      0.250000000000
      0.250000000000     -0.350000000000      0.050000000000
      0.050000000000      0.250000000000     -0.350000000000
      0.350000000000     -0.250000000000     -0.050000000000
     -0.050000000000      0.350000000000     -0.250000000000
     -0.250000000000     -0.050000000000      0.350000000000
      0.350000000000     -0.050000000000     -0.250000000000
     -0.250000000000      0.350000000000     -0.050000000000
     -0.050000000000     -0.250000000000      0.350000000000
      0.050000000000     -0.250000000000      0.250000000000
      0.250000000000      0.050000000000     -0.250000000000
     -0.250000000000      0.050000000000      0.250000000000
      0.250000000000     -0.250000000000      0.050000000000
      0.050000000000      0.250000000000     -0.250000000000
      0.250000000000     -0.250000000000     -0.050000000000
     -0.050000000000      0.250000000000     -0.250000000000
     -0.250000000000     -0.050000000000      0.250000000000
      0.250000000000     -0.050000000000     -0.250000000000
     -0.250000000000      0.250000000000     -0.050000000000
     -0.050000000000     -0.250000000000      0.250000000000
      0.050000000000     -0.150000000000      0.250000000000
      0.250000000000      0.050000000000     -0.150000000000
     -0.150000000000      0.050000000000      0.250000000000
      0.250000000000     -0.150000000000      0.050000000000
      0.050000000000      0.250000000000     -0.150000000000
      0.150000000000     -0.250000000000     -0.050000000000
     -0.050000000000      0.150000000000     -0.250000000000
     -0.250000000000     -0.050000000000      0.150000000000
      0.150000000000     -0.050000000000     -0.250000000000
     -0.250000000000      0.150000000000     -0.050000000000
     -0.050000000000     -0.250000000000      0.150000000000
      0.050000000000     -0.050000000000      0.250000000000
      0.250000000000      0.050000000000     -0.050000000000
     -0.050000000000      0.050000000000      0.250000000000
      0.250000000000     -0.050000000000      0.050000000000
      0.050000000000      0.250000000000     -0.050000000000
      0.050000000000     -0.250000000000     -0.050000000000
     -0.050000000000      0.050000000000     -0.250000000000
     -0.250000000000     -0.050000000000      0.050000000000
      0.050000000000     -0.050000000000     -0.250000000000
     -0.250000000000      0.050000000000     -0.050000000000
     -0.050000000000     -0.250000000000      0.050000000000
      0.050000000000      0.350000000000      0.350000000000
      0.350000000000      0.050000000000      0.350000000000
     -0.350000000000     -0.350000000000     -0.050000000000
     -0.050000000000     -0.350000000000     -0.350000000000
     -0.350000000000     -0.050000000000     -0.350000000000
      0.050000000000      0.450000000000      0.350000000000
      0.350000000000      0.050000000000      0.450000000000
      0.450000000000      0.050000000000      0.350000000000
      0.350000000000      0.450000000000      0.050000000000
      0.050000000000      0.350000000000      0.450000000000
     -0.450000000000     -0.350000000000     -0.050000000000
     -0.050000000000     -0.450000000000     -0.350000000000
     -0.350000000000     -0.050000000000     -0.450000000000
     -0.450000000000     -0.050000000000     -0.350000000000
     -0.350000000000     -0.450000000000     -0.050000000000
     -0.050000000000     -0.350000000000     -0.450000000000
      0.050000000000     -0.450000000000      0.350000000000
      0.350000000000      0.050000000000     -0.450000000000
     -0.450000000000      0.050000000000      0.350000000000
      0.350000000000     -0.450000000000      0.050000000000
      0.050000000000      0.350000000000     -0.450000000000
      0.450000000000     -0.350000000000     -0.050000000000
     -0.050000000000      0.450000000000     -0.350000000000
     -0.350000000000     -0.050000000000      0.450000000000
      0.450000000000     -0.050000000000     -0.350000000000
     -0.350000000000      0.450000000000     -0.050000000000
     -0.050000000000     -0.350000000000      0.450000000000
      0.050000000000     -0.350000000000      0.350000000000
      0.350000000000      0.050000000000     -0.350000000000
     -0.350000000000      0.050000000000      0.350000000000
      0.350000000000     -0.350000000000      0.050000000000
      0.050000000000      0.350000000000     -0.350000000000
      0.350000000000     -0.350000000000     -0.050000000000
     -0.050000000000      0.350000000000     -0.350000000000
     -0.350000000000     -0.050000000000      0.350000000000
      0.350000000000     -0.050000000000     -0.350000000000
     -0.350000000000      0.350000000000     -0.050000000000
     -0.050000000000     -0.350000000000      0.350000000000
      0.050000000000     -0.250000000000      0.350000000000
      0.350000000000      0.050000000000     -0.250000000000
     -0.250000000000      0.050000000000      0.350000000000
      0.350000000000     -0.250000000000      0.050000000000
      0.050000000000      0.350000000000     -0.250000000000
      0.250000000000     -0.350000000000     -0.050000000000
     -0.050000000000      0.250000000000     -0.350000000000
     -0.350000000000     -0.050000000000      0.250000000000
      0.250000000000     -0.050000000000     -0.350000000000
     -0.350000000000      0.250000000000     -0.050000000000
     -0.050000000000     -0.350000000000      0.250000000000
      0.050000000000     -0.150000000000      0.350000000000
      0.350000000000      0.050000000000     -0.150000000000
     -0.150000000000      0.050000000000      0.350000000000
      0.350000000000     -0.150000000000      0.050000000000
      0.050000000000      0.350000000000     -0.150000000000
      0.150000000000     -0.350000000000     -0.050000000000
     -0.050000000000      0.150000000000     -0.350000000000
     -0.350000000000     -0.050000000000      0.150000000000
      0.150000000000     -0.050000000000     -0.350000000000
     -0.350000000000      0.150000000000     -0.050000000000
     -0.050000000000     -0.350000000000      0.150000000000
      0.050000000000     -0.050000000000      0.350000000000
      0.350000000000      0.050000000000     -0.050000000000
     -0.050000000000      0.050000000000      0.350000000000
      0.350000000000     -0.050000000000      0.050000000000
      0.050000000000      0.350000000000     -0.050000000000
      0.050000000000     -0.350000000000     -0.050000000000
     -0.050000000000      0.050000000000     -0.350000000000
     -0.350000000000     -0.050000000000      0.050000000000
      0.050000000000     -0.050000000000     -0.350000000000
     -0.350000000000      0.050000000000     -0.050000000000
     -0.050000000000     -0.350000000000      0.050000000000
      0.050000000000      0.450000000000      0.450000000000
      0.450000000000      0.050000000000      0.450000000000
     -0.450000000000     -0.450000000000     -0.050000000000
     -0.050000000000     -0.450000000000     -0.450000000000
     -0.450000000000     -0.050000000000     -0.450000000000
      0.050000000000     -0.450000000000      0.450000000000
      0.450000000000      0.050000000000     -0.450000000000
     -0.450000000000      0.050000000000      0.450000000000
      0.450000000000     -0.450000000000      0.050000000000
      0.050000000000      0.450000000000     -0.450000000000
      0.450000000000     -0.450000000000     -0.050000000000
     -0.050000000000      0.450000000000     -0.450000000000
     -0.450000000000     -0.050000000000      0.450000000000
      0.450000000000     -0.050000000000     -0.450000000000
     -0.450000000000      0.450000000000     -0.050000000000
     -0.050000000000     -0.450000000000      0.450000000000
      0.050000000000     -0.350000000000      0.450000000000
      0.450000000000      0.050000000000     -0.350000000000
     -0.350000000000      0.050000000000      0.450000000000
      0.450000000000     -0.350000000000      0.050000000000
      0.050000000000      0.450000000000     -0.350000000000
      0.350000000000     -0.450000000000     -0.050000000000
     -0.050000000000      0.350000000000     -0.450000000000
     -0.450000000000     -0.050000000000      0.350000000000
      0.350000000000     -0.050000000000     -0.450000000000
     -0.450000000000      0.350000000000     -0.050000000000
     -0.050000000000     -0.450000000000      0.350000000000
      0.050000000000     -0.250000000000      0.450000000000
      0.450000000000      0.050000000000     -0.250000000000
     -0.250000000000      0.050000000000      0.450000000000
      0.450000000000     -0.250000000000      0.050000000000
      0.050000000000      0.450000000000     -0.250000000000
      0.250000000000     -0.450000000000     -0.050000000000
     -0.050000000000      0.250000000000     -0.450000000000
     -0.450000000000     -0.050000000000      0.250000000000
      0.250000000000     -0.050000000000     -0.450000000000
     -0.450000000000      0.250000000000     -0.050000000000
     -0.050000000000     -0.450000000000      0.250000000000
      0.050000000000     -0.150000000000      0.450000000000
      0.450000000000      0.050000000000     -0.150000000000
     -0.150000000000      0.050000000000      0.450000000000
      0.450000000000     -0.150000000000      0.050000000000
      0.050000000000      0.450000000000     -0.150000000000
      0.150000000000     -0.450000000000     -0.050000000000
     -0.050000000000      0.150000000000     -0.450000000000
     -0.450000000000     -0.050000000000      0.150000000000
      0.150000000000     -0.050000000000     -0.450000000000
     -0.450000000000      0.150000000000     -0.050000000000
     -0.050000000000     -0.450000000000      0.150000000000
      0.050000000000     -0.050000000000      0.450000000000
      0.450000000000      0.050000000000     -0.050000000000
     -0.050000000000      0.050000000000      0.450000000000
      0.450000000000     -0.050000000000      0.050000000000
      0.050000000000      0.450000000000     -0.050000000000
      0.050000000000     -0.450000000000     -0.050000000000
     -0.050000000000      0.050000000000     -0.450000000000
     -0.450000000000     -0.050000000000      0.050000000000
      0.050000000000     -0.050000000000     -0.450000000000
     -0.450000000000      0.050000000000     -0.050000000000
     -0.050000000000     -0.450000000000      0.050000000000
      0.050000000000     -0.450000000000     -0.450000000000
     -0.450000000000      0.050000000000     -0.450000000000
      0.450000000000      0.450000000000     -0.050000000000
     -0.050000000000      0.450000000000      0.450000000000
      0.450000000000     -0.050000000000      0.450000000000
      0.050000000000     -0.350000000000     -0.450000000000