Bismuth                                 
   1.00000000000000     
     4.0831593211330013   -2.2603767206143117   -0.0011294660830675
     4.0831593211330013    2.2603767206143117   -0.0011294660830675
     2.8328744050572880    0.0000000000000000    3.7089509085070551
   Bi
     2
Direct
  0.7630846428861108  0.2630846428861108  0.2630846428861108
  0.2369153571138892  0.7369153571138892  0.7369153571138892
 
  0.00000000E+00  0.00000000E+00  0.00000000E+00
  0.00000000E+00  0.00000000E+00  0.00000000E+00
