Bismuth                                   [RHL,RHL1,hR2] (STD_PRIM doi:10.1016/j.commatsci.2010.05.010)
1.000000
   4.08315947734704  -2.26037672061431   0.00000000000000
   4.08315947734704   2.26037672061431   0.00000000000000
   2.83184834256502   0.00000000000000   3.70973438419192
Bi 
2 
Direct(2) [A2] 
   0.00000000000000   0.00000000000000   0.00000000000000
   0.52616928577222   0.52616928577222   0.52616928577222
