
restart = plot
wannier_plot = T

exclude_bands 1-12, 24-48
begin projections
   #f=0.00000,0.00000,0.00000:s;pz;px;py:z=0,0,+1,x=+1,0,0
   #f=0.52617,0.52617,0.52617:s;pz;px;py:z=0,0,-1,x=-1,0,0
   #Bi:s;pz;px;py:z=0,0,+1,x=+1,0,0
   Bi:pz;px;py:z=0,0,+1,x=+1,0,0
end projections

# s, pz, px, py
#dis_win_min  = -11
#dis_win_max  =  11
#dis_froz_min = -11
#dis_froz_max =   5

# pz, px, py
dis_win_min  =  -2
dis_win_max  =  11
dis_froz_min =  -2
dis_froz_max =   5

dis_num_iter =   0
num_iter     =   0

#dis_mix_ratio   = 0.3
#hr_plot= T
write_hr = T
use_ws_distance = T

bands_plot = T
begin kpoint_path
   G   0.0000   0.0000   0.0000   L   0.5000   0.0000   0.0000
   L   0.5000   0.0000   0.0000   B1  0.5000   0.2424  -0.2424
   B   0.7576   0.5000   0.2424   Z   0.5000   0.5000   0.5000
   Z   0.5000   0.5000   0.5000   G   0.0000   0.0000   0.0000
   G   0.0000   0.0000   0.0000   X   0.3712   0.0000  -0.3712
   Q   0.6288   0.3712   0.0000   F   0.5000   0.5000   0.0000
   F   0.5000   0.5000   0.0000   P1  0.6288   0.6288   0.2424
   P1  0.6288   0.6288   0.2424   Z   0.5000   0.5000   0.5000
   L   0.5000   0.0000   0.0000   P   0.7576   0.3712   0.3712
end kpoint_path
bands_num_points = 40
bands_plot_format gnuplot xmgrace

# This part was generated automatically by VASP
num_bands = 11
num_wann = 6
begin unit_cell_cart
     4.0831595    -2.2603767     0.0000000
     4.0831595     2.2603767     0.0000000
     2.8318483     0.0000000     3.7097344
end unit_cell_cart
begin atoms_cart
Bi       0.0000000     0.0000000     0.0000000
Bi       5.7868978     0.0000000     1.9519483
end atoms_cart
mp_grid =     6     6     6
begin kpoints
      0.083333333333      0.083333333333      0.083333333333
      0.250000000000      0.083333333333      0.083333333333
      0.416666666667      0.083333333333      0.083333333333
     -0.416666666667      0.083333333333      0.083333333333
     -0.250000000000      0.083333333333      0.083333333333
     -0.083333333333      0.083333333333      0.083333333333
      0.250000000000      0.250000000000      0.083333333333
      0.416666666667      0.250000000000      0.083333333333
     -0.416666666667      0.250000000000      0.083333333333
     -0.250000000000      0.250000000000      0.083333333333
     -0.083333333333      0.250000000000      0.083333333333
      0.416666666667      0.416666666667      0.083333333333
     -0.416666666667      0.416666666667      0.083333333333
     -0.250000000000      0.416666666667      0.083333333333
     -0.083333333333      0.416666666667      0.083333333333
     -0.416666666667     -0.416666666667      0.083333333333
     -0.250000000000     -0.416666666667      0.083333333333
     -0.250000000000     -0.250000000000      0.083333333333
      0.250000000000      0.250000000000      0.250000000000
      0.416666666667      0.250000000000      0.250000000000
     -0.416666666667      0.250000000000      0.250000000000
     -0.250000000000      0.250000000000      0.250000000000
      0.416666666667      0.416666666667      0.250000000000
     -0.416666666667      0.416666666667      0.250000000000
     -0.250000000000      0.416666666667      0.250000000000
     -0.416666666667     -0.416666666667      0.250000000000
      0.416666666667      0.416666666667      0.416666666667
     -0.416666666667      0.416666666667      0.416666666667
     -0.083333333333     -0.083333333333     -0.083333333333
      0.083333333333      0.250000000000      0.083333333333
      0.083333333333      0.083333333333      0.250000000000
     -0.250000000000     -0.083333333333     -0.083333333333
     -0.083333333333     -0.250000000000     -0.083333333333
     -0.083333333333     -0.083333333333     -0.250000000000
      0.083333333333      0.416666666667      0.083333333333
      0.083333333333      0.083333333333      0.416666666667
     -0.416666666667     -0.083333333333     -0.083333333333
     -0.083333333333     -0.416666666667     -0.083333333333
     -0.083333333333     -0.083333333333     -0.416666666667
      0.083333333333     -0.416666666667      0.083333333333
      0.083333333333      0.083333333333     -0.416666666667
      0.416666666667     -0.083333333333     -0.083333333333
     -0.083333333333      0.416666666667     -0.083333333333
     -0.083333333333     -0.083333333333      0.416666666667
      0.083333333333     -0.250000000000      0.083333333333
      0.083333333333      0.083333333333     -0.250000000000
      0.250000000000     -0.083333333333     -0.083333333333
     -0.083333333333      0.250000000000     -0.083333333333
     -0.083333333333     -0.083333333333      0.250000000000
      0.083333333333     -0.083333333333      0.083333333333
      0.083333333333      0.083333333333     -0.083333333333
      0.083333333333     -0.083333333333     -0.083333333333
     -0.083333333333      0.083333333333     -0.083333333333
     -0.083333333333     -0.083333333333      0.083333333333
      0.250000000000      0.083333333333      0.250000000000
      0.083333333333      0.250000000000      0.250000000000
     -0.250000000000     -0.250000000000     -0.083333333333
     -0.250000000000     -0.083333333333     -0.250000000000
     -0.083333333333     -0.250000000000     -0.250000000000
      0.416666666667      0.083333333333      0.250000000000
      0.083333333333      0.416666666667      0.250000000000
      0.250000000000      0.416666666667      0.083333333333
      0.250000000000      0.083333333333      0.416666666667
      0.083333333333      0.250000000000      0.416666666667
     -0.416666666667     -0.250000000000     -0.083333333333
     -0.416666666667     -0.083333333333     -0.250000000000
     -0.083333333333     -0.416666666667     -0.250000000000
     -0.250000000000     -0.416666666667     -0.083333333333
     -0.250000000000     -0.083333333333     -0.416666666667
     -0.083333333333     -0.250000000000     -0.416666666667
     -0.416666666667      0.083333333333      0.250000000000
      0.083333333333     -0.416666666667      0.250000000000
      0.250000000000     -0.416666666667      0.083333333333
      0.250000000000      0.083333333333     -0.416666666667
      0.083333333333      0.250000000000     -0.416666666667
      0.416666666667     -0.250000000000     -0.083333333333
      0.416666666667     -0.083333333333     -0.250000000000
     -0.083333333333      0.416666666667     -0.250000000000
     -0.250000000000      0.416666666667     -0.083333333333
     -0.250000000000     -0.083333333333      0.416666666667
     -0.083333333333     -0.250000000000      0.416666666667
     -0.250000000000      0.083333333333      0.250000000000
      0.083333333333     -0.250000000000      0.250000000000
      0.250000000000     -0.250000000000      0.083333333333
      0.250000000000      0.083333333333     -0.250000000000
      0.083333333333      0.250000000000     -0.250000000000
      0.250000000000     -0.250000000000     -0.083333333333
      0.250000000000     -0.083333333333     -0.250000000000
     -0.083333333333      0.250000000000     -0.250000000000
     -0.250000000000      0.250000000000     -0.083333333333
     -0.250000000000     -0.083333333333      0.250000000000
     -0.083333333333     -0.250000000000      0.250000000000
     -0.083333333333      0.083333333333      0.250000000000
      0.083333333333     -0.083333333333      0.250000000000
      0.250000000000     -0.083333333333      0.083333333333
      0.250000000000      0.083333333333     -0.083333333333
      0.083333333333      0.250000000000     -0.083333333333
      0.083333333333     -0.250000000000     -0.083333333333
      0.083333333333     -0.083333333333     -0.250000000000
     -0.083333333333      0.083333333333     -0.250000000000
     -0.250000000000      0.083333333333     -0.083333333333
     -0.250000000000     -0.083333333333      0.083333333333
     -0.083333333333     -0.250000000000      0.083333333333
      0.416666666667      0.083333333333      0.416666666667
      0.083333333333      0.416666666667      0.416666666667
     -0.416666666667     -0.416666666667     -0.083333333333
     -0.416666666667     -0.083333333333     -0.416666666667
     -0.083333333333     -0.416666666667     -0.416666666667
     -0.416666666667      0.083333333333      0.416666666667
      0.083333333333     -0.416666666667      0.416666666667
      0.416666666667     -0.416666666667      0.083333333333
      0.416666666667      0.083333333333     -0.416666666667
      0.083333333333      0.416666666667     -0.416666666667
      0.416666666667     -0.416666666667     -0.083333333333
      0.416666666667     -0.083333333333     -0.416666666667
     -0.083333333333      0.416666666667     -0.416666666667
     -0.416666666667      0.416666666667     -0.083333333333
     -0.416666666667     -0.083333333333      0.416666666667
     -0.083333333333     -0.416666666667      0.416666666667
     -0.250000000000      0.083333333333      0.416666666667
      0.083333333333     -0.250000000000      0.416666666667
      0.416666666667     -0.250000000000      0.083333333333
      0.416666666667      0.083333333333     -0.250000000000
      0.083333333333      0.416666666667     -0.250000000000
      0.250000000000     -0.416666666667     -0.083333333333
      0.250000000000     -0.083333333333     -0.416666666667
     -0.083333333333      0.250000000000     -0.416666666667
     -0.416666666667      0.250000000000     -0.083333333333
     -0.416666666667     -0.083333333333      0.250000000000
     -0.083333333333     -0.416666666667      0.250000000000
     -0.083333333333      0.083333333333      0.416666666667
      0.083333333333     -0.083333333333      0.416666666667
      0.416666666667     -0.083333333333      0.083333333333
      0.416666666667      0.083333333333     -0.083333333333
      0.083333333333      0.416666666667     -0.083333333333
      0.083333333333     -0.416666666667     -0.083333333333
      0.083333333333     -0.083333333333     -0.416666666667
     -0.083333333333      0.083333333333     -0.416666666667
     -0.416666666667      0.083333333333     -0.083333333333
     -0.416666666667     -0.083333333333      0.083333333333
     -0.083333333333     -0.416666666667      0.083333333333
     -0.416666666667      0.083333333333     -0.416666666667
      0.083333333333     -0.416666666667     -0.416666666667
      0.416666666667      0.416666666667     -0.083333333333
      0.416666666667     -0.083333333333      0.416666666667
     -0.083333333333      0.416666666667      0.416666666667
     -0.250000000000      0.083333333333     -0.416666666667
      0.083333333333     -0.250000000000     -0.416666666667
     -0.416666666667     -0.250000000000      0.083333333333
     -0.416666666667      0.083333333333     -0.250000000000
      0.083333333333     -0.416666666667     -0.250000000000
      0.250000000000      0.416666666667     -0.083333333333
      0.250000000000     -0.083333333333      0.416666666667
     -0.083333333333      0.250000000000      0.416666666667
      0.416666666667      0.250000000000     -0.083333333333
      0.416666666667     -0.083333333333      0.250000000000
     -0.083333333333      0.416666666667      0.250000000000
     -0.250000000000      0.083333333333     -0.250000000000
      0.083333333333     -0.250000000000     -0.250000000000
      0.250000000000      0.250000000000     -0.083333333333
      0.250000000000     -0.083333333333      0.250000000000
     -0.083333333333      0.250000000000      0.250000000000
     -0.250000000000     -0.250000000000     -0.250000000000
      0.250000000000      0.416666666667      0.250000000000
      0.250000000000      0.250000000000      0.416666666667
     -0.416666666667     -0.250000000000     -0.250000000000
     -0.250000000000     -0.416666666667     -0.250000000000
     -0.250000000000     -0.250000000000     -0.416666666667
      0.250000000000     -0.416666666667      0.250000000000
      0.250000000000      0.250000000000     -0.416666666667
      0.416666666667     -0.250000000000     -0.250000000000
     -0.250000000000      0.416666666667     -0.250000000000
     -0.250000000000     -0.250000000000      0.416666666667
      0.250000000000     -0.250000000000      0.250000000000
      0.250000000000      0.250000000000     -0.250000000000
      0.250000000000     -0.250000000000     -0.250000000000
     -0.250000000000      0.250000000000     -0.250000000000
     -0.250000000000     -0.250000000000      0.250000000000
      0.416666666667      0.250000000000      0.416666666667
      0.250000000000      0.416666666667      0.416666666667
     -0.416666666667     -0.416666666667     -0.250000000000
     -0.416666666667     -0.250000000000     -0.416666666667
     -0.250000000000     -0.416666666667     -0.416666666667
     -0.416666666667      0.250000000000      0.416666666667
      0.250000000000     -0.416666666667      0.416666666667
      0.416666666667     -0.416666666667      0.250000000000
      0.416666666667      0.250000000000     -0.416666666667
      0.250000000000      0.416666666667     -0.416666666667
      0.416666666667     -0.416666666667     -0.250000000000
      0.416666666667     -0.250000000000     -0.416666666667
     -0.250000000000      0.416666666667     -0.416666666667
     -0.416666666667      0.416666666667     -0.250000000000
     -0.416666666667     -0.250000000000      0.416666666667
     -0.250000000000     -0.416666666667      0.416666666667
     -0.250000000000      0.250000000000      0.416666666667
      0.250000000000     -0.250000000000      0.416666666667
      0.416666666667     -0.250000000000      0.250000000000
      0.416666666667      0.250000000000     -0.250000000000
      0.250000000000      0.416666666667     -0.250000000000
      0.250000000000     -0.416666666667     -0.250000000000
      0.250000000000     -0.250000000000     -0.416666666667
     -0.250000000000      0.250000000000     -0.416666666667
     -0.416666666667      0.250000000000     -0.250000000000
     -0.416666666667     -0.250000000000      0.250000000000
     -0.250000000000     -0.416666666667      0.250000000000
     -0.416666666667      0.250000000000     -0.416666666667
      0.250000000000     -0.416666666667     -0.416666666667
      0.416666666667      0.416666666667     -0.250000000000
      0.416666666667     -0.250000000000      0.416666666667
     -0.250000000000      0.416666666667      0.416666666667
     -0.416666666667     -0.416666666667     -0.416666666667
      0.416666666667     -0.416666666667      0.416666666667
      0.416666666667      0.416666666667     -0.416666666667
      0.416666666667     -0.416666666667     -0.416666666667
     -0.416666666667      0.416666666667     -0.416666666667
     -0.416666666667     -0.416666666667      0.416666666667
end kpoints
