H - fcc                                  [FCC,FCC,cF4] (STD_PRIM doi:10.1016/j.commatsci.2010.05.010)
1.000000
   0.00000000000000   2.00000000000000   2.00000000000000
   2.00000000000000   0.00000000000000   2.00000000000000
   2.00000000000000   2.00000000000000   0.00000000000000
H 
1 
Direct(1) [A1] 
   0.00000000000000   0.00000000000000   0.00000000000000  H 
