
restart = plot
#wannier_plot = T

begin projections
   H:s
end projections

#exclude_bands 11-48
dis_win_min  = -10
dis_win_max  =   0
dis_froz_min = -10
dis_froz_max =   0

dis_num_iter =   0
num_iter     =   0

write_hr       = T
use_ws_distance = T
write_xyz       = T

bands_plot = T
begin kpoint_path
   G   0.0000   0.0000   0.0000   X   0.5000   0.0000   0.5000
   X   0.5000   0.0000   0.5000   W   0.5000   0.2500   0.7500
   W   0.5000   0.2500   0.7500   K   0.3750   0.3750   0.7500
   K   0.3750   0.3750   0.7500   G   0.0000   0.0000   0.0000
   G   0.0000   0.0000   0.0000   L   0.5000   0.5000   0.5000
   L   0.5000   0.5000   0.5000   U   0.6250   0.2500   0.6250
   U   0.6250   0.2500   0.6250   W   0.5000   0.2500   0.7500
   W   0.5000   0.2500   0.7500   L   0.5000   0.5000   0.5000
   L   0.5000   0.5000   0.5000   K   0.3750   0.3750   0.7500
   U   0.6250   0.2500   0.6250   X   0.5000   0.0000   0.5000
end kpoint_path
bands_num_points = 40
bands_plot_format gnuplot xmgrace

# This part was generated automatically by VASP
num_bands = 48
num_wann = 1
begin unit_cell_cart
     0.0000000     2.0000000     2.0000000
     2.0000000     0.0000000     2.0000000
     2.0000000     2.0000000     0.0000000
end unit_cell_cart
begin atoms_cart
H        0.0000000     0.0000000     0.0000000
end atoms_cart
mp_grid =     8     8     8
begin kpoints
      0.062500000000      0.062500000000      0.062500000000
      0.187500000000      0.062500000000      0.062500000000
      0.312500000000      0.062500000000      0.062500000000
      0.437500000000      0.062500000000      0.062500000000
     -0.437500000000      0.062500000000      0.062500000000
     -0.312500000000      0.062500000000      0.062500000000
     -0.187500000000      0.062500000000      0.062500000000
     -0.062500000000      0.062500000000      0.062500000000
      0.062500000000      0.187500000000      0.062500000000
      0.187500000000      0.187500000000      0.062500000000
      0.312500000000      0.187500000000      0.062500000000
      0.437500000000      0.187500000000      0.062500000000
     -0.437500000000      0.187500000000      0.062500000000
     -0.312500000000      0.187500000000      0.062500000000
     -0.187500000000      0.187500000000      0.062500000000
     -0.062500000000      0.187500000000      0.062500000000
      0.062500000000      0.312500000000      0.062500000000
      0.187500000000      0.312500000000      0.062500000000
      0.312500000000      0.312500000000      0.062500000000
      0.437500000000      0.312500000000      0.062500000000
     -0.437500000000      0.312500000000      0.062500000000
     -0.312500000000      0.312500000000      0.062500000000
     -0.187500000000      0.312500000000      0.062500000000
     -0.062500000000      0.312500000000      0.062500000000
      0.062500000000      0.437500000000      0.062500000000
      0.187500000000      0.437500000000      0.062500000000
      0.312500000000      0.437500000000      0.062500000000
      0.437500000000      0.437500000000      0.062500000000
     -0.437500000000      0.437500000000      0.062500000000
     -0.312500000000      0.437500000000      0.062500000000
     -0.187500000000      0.437500000000      0.062500000000
     -0.062500000000      0.437500000000      0.062500000000
      0.062500000000     -0.437500000000      0.062500000000
      0.187500000000     -0.437500000000      0.062500000000
      0.312500000000     -0.437500000000      0.062500000000
      0.437500000000     -0.437500000000      0.062500000000
     -0.437500000000     -0.437500000000      0.062500000000
     -0.312500000000     -0.437500000000      0.062500000000
     -0.187500000000     -0.437500000000      0.062500000000
     -0.062500000000     -0.437500000000      0.062500000000
      0.062500000000     -0.312500000000      0.062500000000
      0.187500000000     -0.312500000000      0.062500000000
      0.312500000000     -0.312500000000      0.062500000000
      0.437500000000     -0.312500000000      0.062500000000
     -0.437500000000     -0.312500000000      0.062500000000
     -0.312500000000     -0.312500000000      0.062500000000
     -0.187500000000     -0.312500000000      0.062500000000
     -0.062500000000     -0.312500000000      0.062500000000
      0.062500000000     -0.187500000000      0.062500000000
      0.187500000000     -0.187500000000      0.062500000000
      0.312500000000     -0.187500000000      0.062500000000
      0.437500000000     -0.187500000000      0.062500000000
     -0.437500000000     -0.187500000000      0.062500000000
     -0.312500000000     -0.187500000000      0.062500000000
     -0.187500000000     -0.187500000000      0.062500000000
     -0.062500000000     -0.187500000000      0.062500000000
      0.062500000000     -0.062500000000      0.062500000000
      0.187500000000     -0.062500000000      0.062500000000
      0.312500000000     -0.062500000000      0.062500000000
      0.437500000000     -0.062500000000      0.062500000000
     -0.437500000000     -0.062500000000      0.062500000000
     -0.312500000000     -0.062500000000      0.062500000000
     -0.187500000000     -0.062500000000      0.062500000000
     -0.062500000000     -0.062500000000      0.062500000000
      0.062500000000      0.062500000000      0.187500000000
      0.187500000000      0.062500000000      0.187500000000
      0.312500000000      0.062500000000      0.187500000000
      0.437500000000      0.062500000000      0.187500000000
     -0.437500000000      0.062500000000      0.187500000000
     -0.312500000000      0.062500000000      0.187500000000
     -0.187500000000      0.062500000000      0.187500000000
     -0.062500000000      0.062500000000      0.187500000000
      0.062500000000      0.187500000000      0.187500000000
      0.187500000000      0.187500000000      0.187500000000
      0.312500000000      0.187500000000      0.187500000000
      0.437500000000      0.187500000000      0.187500000000
     -0.437500000000      0.187500000000      0.187500000000
     -0.312500000000      0.187500000000      0.187500000000
     -0.187500000000      0.187500000000      0.187500000000
     -0.062500000000      0.187500000000      0.187500000000
      0.062500000000      0.312500000000      0.187500000000
      0.187500000000      0.312500000000      0.187500000000
      0.312500000000      0.312500000000      0.187500000000
      0.437500000000      0.312500000000      0.187500000000
     -0.437500000000      0.312500000000      0.187500000000
     -0.312500000000      0.312500000000      0.187500000000
     -0.187500000000      0.312500000000      0.187500000000
     -0.062500000000      0.312500000000      0.187500000000
      0.062500000000      0.437500000000      0.187500000000
      0.187500000000      0.437500000000      0.187500000000
      0.312500000000      0.437500000000      0.187500000000
      0.437500000000      0.437500000000      0.187500000000
     -0.437500000000      0.437500000000      0.187500000000
     -0.312500000000      0.437500000000      0.187500000000
     -0.187500000000      0.437500000000      0.187500000000
     -0.062500000000      0.437500000000      0.187500000000
      0.062500000000     -0.437500000000      0.187500000000
      0.187500000000     -0.437500000000      0.187500000000
      0.312500000000     -0.437500000000      0.187500000000
      0.437500000000     -0.437500000000      0.187500000000
     -0.437500000000     -0.437500000000      0.187500000000
     -0.312500000000     -0.437500000000      0.187500000000
     -0.187500000000     -0.437500000000      0.187500000000
     -0.062500000000     -0.437500000000      0.187500000000
      0.062500000000     -0.312500000000      0.187500000000
      0.187500000000     -0.312500000000      0.187500000000
      0.312500000000     -0.312500000000      0.187500000000
      0.437500000000     -0.312500000000      0.187500000000
     -0.437500000000     -0.312500000000      0.187500000000
     -0.312500000000     -0.312500000000      0.187500000000
     -0.187500000000     -0.312500000000      0.187500000000
     -0.062500000000     -0.312500000000      0.187500000000
      0.062500000000     -0.187500000000      0.187500000000
      0.187500000000     -0.187500000000      0.187500000000
      0.312500000000     -0.187500000000      0.187500000000
      0.437500000000     -0.187500000000      0.187500000000
     -0.437500000000     -0.187500000000      0.187500000000
     -0.312500000000     -0.187500000000      0.187500000000
     -0.187500000000     -0.187500000000      0.187500000000
     -0.062500000000     -0.187500000000      0.187500000000
      0.062500000000     -0.062500000000      0.187500000000
      0.187500000000     -0.062500000000      0.187500000000
      0.312500000000     -0.062500000000      0.187500000000
      0.437500000000     -0.062500000000      0.187500000000
     -0.437500000000     -0.062500000000      0.187500000000
     -0.312500000000     -0.062500000000      0.187500000000
     -0.187500000000     -0.062500000000      0.187500000000
     -0.062500000000     -0.062500000000      0.187500000000
      0.062500000000      0.062500000000      0.312500000000
      0.187500000000      0.062500000000      0.312500000000
      0.312500000000      0.062500000000      0.312500000000
      0.437500000000      0.062500000000      0.312500000000
     -0.437500000000      0.062500000000      0.312500000000
     -0.312500000000      0.062500000000      0.312500000000
     -0.187500000000      0.062500000000      0.312500000000
     -0.062500000000      0.062500000000      0.312500000000
      0.062500000000      0.187500000000      0.312500000000
      0.187500000000      0.187500000000      0.312500000000
      0.312500000000      0.187500000000      0.312500000000
      0.437500000000      0.187500000000      0.312500000000
     -0.437500000000      0.187500000000      0.312500000000
     -0.312500000000      0.187500000000      0.312500000000
     -0.187500000000      0.187500000000      0.312500000000
     -0.062500000000      0.187500000000      0.312500000000
      0.062500000000      0.312500000000      0.312500000000
      0.187500000000      0.312500000000      0.312500000000
      0.312500000000      0.312500000000      0.312500000000
      0.437500000000      0.312500000000      0.312500000000
     -0.437500000000      0.312500000000      0.312500000000
     -0.312500000000      0.312500000000      0.312500000000
     -0.187500000000      0.312500000000      0.312500000000
     -0.062500000000      0.312500000000      0.312500000000
      0.062500000000      0.437500000000      0.312500000000
      0.187500000000      0.437500000000      0.312500000000
      0.312500000000      0.437500000000      0.312500000000
      0.437500000000      0.437500000000      0.312500000000
     -0.437500000000      0.437500000000      0.312500000000
     -0.312500000000      0.437500000000      0.312500000000
     -0.187500000000      0.437500000000      0.312500000000
     -0.062500000000      0.437500000000      0.312500000000
      0.062500000000     -0.437500000000      0.312500000000
      0.187500000000     -0.437500000000      0.312500000000
      0.312500000000     -0.437500000000      0.312500000000
      0.437500000000     -0.437500000000      0.312500000000
     -0.437500000000     -0.437500000000      0.312500000000
     -0.312500000000     -0.437500000000      0.312500000000
     -0.187500000000     -0.437500000000      0.312500000000
     -0.062500000000     -0.437500000000      0.312500000000
      0.062500000000     -0.312500000000      0.312500000000
      0.187500000000     -0.312500000000      0.312500000000
      0.312500000000     -0.312500000000      0.312500000000
      0.437500000000     -0.312500000000      0.312500000000
     -0.437500000000     -0.312500000000      0.312500000000
     -0.312500000000     -0.312500000000      0.312500000000
     -0.187500000000     -0.312500000000      0.312500000000
     -0.062500000000     -0.312500000000      0.312500000000
      0.062500000000     -0.187500000000      0.312500000000
      0.187500000000     -0.187500000000      0.312500000000
      0.312500000000     -0.187500000000      0.312500000000
      0.437500000000     -0.187500000000      0.312500000000
     -0.437500000000     -0.187500000000      0.312500000000
     -0.312500000000     -0.187500000000      0.312500000000
     -0.187500000000     -0.187500000000      0.312500000000
     -0.062500000000     -0.187500000000      0.312500000000
      0.062500000000     -0.062500000000      0.312500000000
      0.187500000000     -0.062500000000      0.312500000000
      0.312500000000     -0.062500000000      0.312500000000
      0.437500000000     -0.062500000000      0.312500000000
     -0.437500000000     -0.062500000000      0.312500000000
     -0.312500000000     -0.062500000000      0.312500000000
     -0.187500000000     -0.062500000000      0.312500000000
     -0.062500000000     -0.062500000000      0.312500000000
      0.062500000000      0.062500000000      0.437500000000
      0.187500000000      0.062500000000      0.437500000000
      0.312500000000      0.062500000000      0.437500000000
      0.437500000000      0.062500000000      0.437500000000
     -0.437500000000      0.062500000000      0.437500000000
     -0.312500000000      0.062500000000      0.437500000000
     -0.187500000000      0.062500000000      0.437500000000
     -0.062500000000      0.062500000000      0.437500000000
      0.062500000000      0.187500000000      0.437500000000
      0.187500000000      0.187500000000      0.437500000000
      0.312500000000      0.187500000000      0.437500000000
      0.437500000000      0.187500000000      0.437500000000
     -0.437500000000      0.187500000000      0.437500000000
     -0.312500000000      0.187500000000      0.437500000000
     -0.187500000000      0.187500000000      0.437500000000
     -0.062500000000      0.187500000000      0.437500000000
      0.062500000000      0.312500000000      0.437500000000
      0.187500000000      0.312500000000      0.437500000000
      0.312500000000      0.312500000000      0.437500000000
      0.437500000000      0.312500000000      0.437500000000
     -0.437500000000      0.312500000000      0.437500000000
     -0.312500000000      0.312500000000      0.437500000000
     -0.187500000000      0.312500000000      0.437500000000
     -0.062500000000      0.312500000000      0.437500000000
      0.062500000000      0.437500000000      0.437500000000
      0.187500000000      0.437500000000      0.437500000000
      0.312500000000      0.437500000000      0.437500000000
      0.437500000000      0.437500000000      0.437500000000
     -0.437500000000      0.437500000000      0.437500000000
     -0.312500000000      0.437500000000      0.437500000000
     -0.187500000000      0.437500000000      0.437500000000
     -0.062500000000      0.437500000000      0.437500000000
      0.062500000000     -0.437500000000      0.437500000000
      0.187500000000     -0.437500000000      0.437500000000
      0.312500000000     -0.437500000000      0.437500000000
      0.437500000000     -0.437500000000      0.437500000000
     -0.437500000000     -0.437500000000      0.437500000000
     -0.312500000000     -0.437500000000      0.437500000000
     -0.187500000000     -0.437500000000      0.437500000000
     -0.062500000000     -0.437500000000      0.437500000000
      0.062500000000     -0.312500000000      0.437500000000
      0.187500000000     -0.312500000000      0.437500000000
      0.312500000000     -0.312500000000      0.437500000000
      0.437500000000     -0.312500000000      0.437500000000
     -0.437500000000     -0.312500000000      0.437500000000
     -0.312500000000     -0.312500000000      0.437500000000
     -0.187500000000     -0.312500000000      0.437500000000
     -0.062500000000     -0.312500000000      0.437500000000
      0.062500000000     -0.187500000000      0.437500000000
      0.187500000000     -0.187500000000      0.437500000000
      0.312500000000     -0.187500000000      0.437500000000
      0.437500000000     -0.187500000000      0.437500000000
     -0.437500000000     -0.187500000000      0.437500000000
     -0.312500000000     -0.187500000000      0.437500000000
     -0.187500000000     -0.187500000000      0.437500000000
     -0.062500000000     -0.187500000000      0.437500000000
      0.062500000000     -0.062500000000      0.437500000000
      0.187500000000     -0.062500000000      0.437500000000
      0.312500000000     -0.062500000000      0.437500000000
      0.437500000000     -0.062500000000      0.437500000000
     -0.437500000000     -0.062500000000      0.437500000000
     -0.312500000000     -0.062500000000      0.437500000000
     -0.187500000000     -0.062500000000      0.437500000000
     -0.062500000000     -0.062500000000      0.437500000000
      0.062500000000      0.062500000000     -0.437500000000
      0.187500000000      0.062500000000     -0.437500000000
      0.312500000000      0.062500000000     -0.437500000000
      0.437500000000      0.062500000000     -0.437500000000
     -0.437500000000      0.062500000000     -0.437500000000
     -0.312500000000      0.062500000000     -0.437500000000
     -0.187500000000      0.062500000000     -0.437500000000
     -0.062500000000      0.062500000000     -0.437500000000
      0.062500000000      0.187500000000     -0.437500000000
      0.187500000000      0.187500000000     -0.437500000000
      0.312500000000      0.187500000000     -0.437500000000
      0.437500000000      0.187500000000     -0.437500000000
     -0.437500000000      0.187500000000     -0.437500000000
     -0.312500000000      0.187500000000     -0.437500000000
     -0.187500000000      0.187500000000     -0.437500000000
     -0.062500000000      0.187500000000     -0.437500000000
      0.062500000000      0.312500000000     -0.437500000000
      0.187500000000      0.312500000000     -0.437500000000
      0.312500000000      0.312500000000     -0.437500000000
      0.437500000000      0.312500000000     -0.437500000000
     -0.437500000000      0.312500000000     -0.437500000000
     -0.312500000000      0.312500000000     -0.437500000000
     -0.187500000000      0.312500000000     -0.437500000000
     -0.062500000000      0.312500000000     -0.437500000000
      0.062500000000      0.437500000000     -0.437500000000
      0.187500000000      0.437500000000     -0.437500000000
      0.312500000000      0.437500000000     -0.437500000000
      0.437500000000      0.437500000000     -0.437500000000
     -0.437500000000      0.437500000000     -0.437500000000
     -0.312500000000      0.437500000000     -0.437500000000
     -0.187500000000      0.437500000000     -0.437500000000
     -0.062500000000      0.437500000000     -0.437500000000
      0.062500000000     -0.437500000000     -0.437500000000
      0.187500000000     -0.437500000000     -0.437500000000
      0.312500000000     -0.437500000000     -0.437500000000
      0.437500000000     -0.437500000000     -0.437500000000
     -0.437500000000     -0.437500000000     -0.437500000000
     -0.312500000000     -0.437500000000     -0.437500000000
     -0.187500000000     -0.437500000000     -0.437500000000
     -0.062500000000     -0.437500000000     -0.437500000000
      0.062500000000     -0.312500000000     -0.437500000000
      0.187500000000     -0.312500000000     -0.437500000000
      0.312500000000     -0.312500000000     -0.437500000000
      0.437500000000     -0.312500000000     -0.437500000000
     -0.437500000000     -0.312500000000     -0.437500000000
     -0.312500000000     -0.312500000000     -0.437500000000
     -0.187500000000     -0.312500000000     -0.437500000000
     -0.062500000000     -0.312500000000     -0.437500000000
      0.062500000000     -0.187500000000     -0.437500000000
      0.187500000000     -0.187500000000     -0.437500000000
      0.312500000000     -0.187500000000     -0.437500000000
      0.437500000000     -0.187500000000     -0.437500000000
     -0.437500000000     -0.187500000000     -0.437500000000
     -0.312500000000     -0.187500000000     -0.437500000000
     -0.187500000000     -0.187500000000     -0.437500000000
     -0.062500000000     -0.187500000000     -0.437500000000
      0.062500000000     -0.062500000000     -0.437500000000
      0.187500000000     -0.062500000000     -0.437500000000
      0.312500000000     -0.062500000000     -0.437500000000
      0.437500000000     -0.062500000000     -0.437500000000
     -0.437500000000     -0.062500000000     -0.437500000000
     -0.312500000000     -0.062500000000     -0.437500000000
     -0.187500000000     -0.062500000000     -0.437500000000
     -0.062500000000     -0.062500000000     -0.437500000000
      0.062500000000      0.062500000000     -0.312500000000
      0.187500000000      0.062500000000     -0.312500000000
      0.312500000000      0.062500000000     -0.312500000000
      0.437500000000      0.062500000000     -0.312500000000
     -0.437500000000      0.062500000000     -0.312500000000
     -0.312500000000      0.062500000000     -0.312500000000
     -0.187500000000      0.062500000000     -0.312500000000
     -0.062500000000      0.062500000000     -0.312500000000
      0.062500000000      0.187500000000     -0.312500000000
      0.187500000000      0.187500000000     -0.312500000000
      0.312500000000      0.187500000000     -0.312500000000
      0.437500000000      0.187500000000     -0.312500000000
     -0.437500000000      0.187500000000     -0.312500000000
     -0.312500000000      0.187500000000     -0.312500000000
     -0.187500000000      0.187500000000     -0.312500000000
     -0.062500000000      0.187500000000     -0.312500000000
      0.062500000000      0.312500000000     -0.312500000000
      0.187500000000      0.312500000000     -0.312500000000
      0.312500000000      0.312500000000     -0.312500000000
      0.437500000000      0.312500000000     -0.312500000000
     -0.437500000000      0.312500000000     -0.312500000000
     -0.312500000000      0.312500000000     -0.312500000000
     -0.187500000000      0.312500000000     -0.312500000000
     -0.062500000000      0.312500000000     -0.312500000000
      0.062500000000      0.437500000000     -0.312500000000
      0.187500000000      0.437500000000     -0.312500000000
      0.312500000000      0.437500000000     -0.312500000000
      0.437500000000      0.437500000000     -0.312500000000
     -0.437500000000      0.437500000000     -0.312500000000
     -0.312500000000      0.437500000000     -0.312500000000
     -0.187500000000      0.437500000000     -0.312500000000
     -0.062500000000      0.437500000000     -0.312500000000
      0.062500000000     -0.437500000000     -0.312500000000
      0.187500000000     -0.437500000000     -0.312500000000
      0.312500000000     -0.437500000000     -0.312500000000
      0.437500000000     -0.437500000000     -0.312500000000
     -0.437500000000     -0.437500000000     -0.312500000000
     -0.312500000000     -0.437500000000     -0.312500000000
     -0.187500000000     -0.437500000000     -0.312500000000
     -0.062500000000     -0.437500000000     -0.312500000000
      0.062500000000     -0.312500000000     -0.312500000000
      0.187500000000     -0.312500000000     -0.312500000000
      0.312500000000     -0.312500000000     -0.312500000000
      0.437500000000     -0.312500000000     -0.312500000000
     -0.437500000000     -0.312500000000     -0.312500000000
     -0.312500000000     -0.312500000000     -0.312500000000
     -0.187500000000     -0.312500000000     -0.312500000000
     -0.062500000000     -0.312500000000     -0.312500000000
      0.062500000000     -0.187500000000     -0.312500000000
      0.187500000000     -0.187500000000     -0.312500000000
      0.312500000000     -0.187500000000     -0.312500000000
      0.437500000000     -0.187500000000     -0.312500000000
     -0.437500000000     -0.187500000000     -0.312500000000
     -0.312500000000     -0.187500000000     -0.312500000000
     -0.187500000000     -0.187500000000     -0.312500000000
     -0.062500000000     -0.187500000000     -0.312500000000
      0.062500000000     -0.062500000000     -0.312500000000
      0.187500000000     -0.062500000000     -0.312500000000
      0.312500000000     -0.062500000000     -0.312500000000
      0.437500000000     -0.062500000000     -0.312500000000
     -0.437500000000     -0.062500000000     -0.312500000000
     -0.312500000000     -0.062500000000     -0.312500000000
     -0.187500000000     -0.062500000000     -0.312500000000
     -0.062500000000     -0.062500000000     -0.312500000000
      0.062500000000      0.062500000000     -0.187500000000
      0.187500000000      0.062500000000     -0.187500000000
      0.312500000000      0.062500000000     -0.187500000000
      0.437500000000      0.062500000000     -0.187500000000
     -0.437500000000      0.062500000000     -0.187500000000
     -0.312500000000      0.062500000000     -0.187500000000
     -0.187500000000      0.062500000000     -0.187500000000
     -0.062500000000      0.062500000000     -0.187500000000
      0.062500000000      0.187500000000     -0.187500000000
      0.187500000000      0.187500000000     -0.187500000000
      0.312500000000      0.187500000000     -0.187500000000
      0.437500000000      0.187500000000     -0.187500000000
     -0.437500000000      0.187500000000     -0.187500000000
     -0.312500000000      0.187500000000     -0.187500000000
     -0.187500000000      0.187500000000     -0.187500000000
     -0.062500000000      0.187500000000     -0.187500000000
      0.062500000000      0.312500000000     -0.187500000000
      0.187500000000      0.312500000000     -0.187500000000
      0.312500000000      0.312500000000     -0.187500000000
      0.437500000000      0.312500000000     -0.187500000000
     -0.437500000000      0.312500000000     -0.187500000000
     -0.312500000000      0.312500000000     -0.187500000000
     -0.187500000000      0.312500000000     -0.187500000000
     -0.062500000000      0.312500000000     -0.187500000000
      0.062500000000      0.437500000000     -0.187500000000
      0.187500000000      0.437500000000     -0.187500000000
      0.312500000000      0.437500000000     -0.187500000000
      0.437500000000      0.437500000000     -0.187500000000
     -0.437500000000      0.437500000000     -0.187500000000
     -0.312500000000      0.437500000000     -0.187500000000
     -0.187500000000      0.437500000000     -0.187500000000
     -0.062500000000      0.437500000000     -0.187500000000
      0.062500000000     -0.437500000000     -0.187500000000
      0.187500000000     -0.437500000000     -0.187500000000
      0.312500000000     -0.437500000000     -0.187500000000
      0.437500000000     -0.437500000000     -0.187500000000
     -0.437500000000     -0.437500000000     -0.187500000000
     -0.312500000000     -0.437500000000     -0.187500000000
     -0.187500000000     -0.437500000000     -0.187500000000
     -0.062500000000     -0.437500000000     -0.187500000000
      0.062500000000     -0.312500000000     -0.187500000000
      0.187500000000     -0.312500000000     -0.187500000000
      0.312500000000     -0.312500000000     -0.187500000000
      0.437500000000     -0.312500000000     -0.187500000000
     -0.437500000000     -0.312500000000     -0.187500000000
     -0.312500000000     -0.312500000000     -0.187500000000
     -0.187500000000     -0.312500000000     -0.187500000000
     -0.062500000000     -0.312500000000     -0.187500000000
      0.062500000000     -0.187500000000     -0.187500000000
      0.187500000000     -0.187500000000     -0.187500000000
      0.312500000000     -0.187500000000     -0.187500000000
      0.437500000000     -0.187500000000     -0.187500000000
     -0.437500000000     -0.187500000000     -0.187500000000
     -0.312500000000     -0.187500000000     -0.187500000000
     -0.187500000000     -0.187500000000     -0.187500000000
     -0.062500000000     -0.187500000000     -0.187500000000
      0.062500000000     -0.062500000000     -0.187500000000
      0.187500000000     -0.062500000000     -0.187500000000
      0.312500000000     -0.062500000000     -0.187500000000
      0.437500000000     -0.062500000000     -0.187500000000
     -0.437500000000     -0.062500000000     -0.187500000000
     -0.312500000000     -0.062500000000     -0.187500000000
     -0.187500000000     -0.062500000000     -0.187500000000
     -0.062500000000     -0.062500000000     -0.187500000000
      0.062500000000      0.062500000000     -0.062500000000
      0.187500000000      0.062500000000     -0.062500000000
      0.312500000000      0.062500000000     -0.062500000000
      0.437500000000      0.062500000000     -0.062500000000
     -0.437500000000      0.062500000000     -0.062500000000
     -0.312500000000      0.062500000000     -0.062500000000
     -0.187500000000      0.062500000000     -0.062500000000
     -0.062500000000      0.062500000000     -0.062500000000
      0.062500000000      0.187500000000     -0.062500000000
      0.187500000000      0.187500000000     -0.062500000000
      0.312500000000      0.187500000000     -0.062500000000
      0.437500000000      0.187500000000     -0.062500000000
     -0.437500000000      0.187500000000     -0.062500000000
     -0.312500000000      0.187500000000     -0.062500000000
     -0.187500000000      0.187500000000     -0.062500000000
     -0.062500000000      0.187500000000     -0.062500000000
      0.062500000000      0.312500000000     -0.062500000000
      0.187500000000      0.312500000000     -0.062500000000
      0.312500000000      0.312500000000     -0.062500000000
      0.437500000000      0.312500000000     -0.062500000000
     -0.437500000000      0.312500000000     -0.062500000000