
restart = plot
#wannier_plot = T

begin projections
   H:s
end projections

exclude_bands 3-48
dis_win_min  = -12
dis_win_max  =   2
dis_froz_min = -10
dis_froz_max =   2

dis_num_iter =   0
num_iter     =   0

write_hr       = T
use_ws_distance = T
write_xyz       = T

bands_plot = T
begin kpoint_path
   Γ   0.0000   0.0000   0.0000   X   0.5000   0.0000   0.5000
   X   0.5000   0.0000   0.5000   W   0.5000   0.2500   0.7500
   W   0.5000   0.2500   0.7500   K   0.3750   0.3750   0.7500
   K   0.3750   0.3750   0.7500   Γ   0.0000   0.0000   0.0000
   Γ   0.0000   0.0000   0.0000   L   0.5000   0.5000   0.5000
   L   0.5000   0.5000   0.5000   U   0.6250   0.2500   0.6250
   U   0.6250   0.2500   0.6250   W   0.5000   0.2500   0.7500
   W   0.5000   0.2500   0.7500   L   0.5000   0.5000   0.5000
   L   0.5000   0.5000   0.5000   K   0.3750   0.3750   0.7500
   U   0.6250   0.2500   0.6250   X   0.5000   0.0000   0.5000
end kpoint_path
bands_num_points = 40
bands_plot_format gnuplot xmgrace

# This part was generated automatically by VASP
num_bands = 2
num_wann = 2
begin unit_cell_cart
     0.0000000     2.5000000     2.5000000
     2.5000000     0.0000000     2.5000000
     2.5000000     2.5000000     0.0000000
end unit_cell_cart
begin atoms_cart
H        0.0000000     0.0000000     0.0000000
H        1.2500000     1.2500000     1.2500000
end atoms_cart
mp_grid =     8     8     8
begin kpoints
      0.062500000000      0.062500000000      0.062500000000
      0.187500000000      0.062500000000      0.062500000000
      0.312500000000      0.062500000000      0.062500000000
      0.437500000000      0.062500000000      0.062500000000
     -0.437500000000      0.062500000000      0.062500000000
     -0.312500000000      0.062500000000      0.062500000000
     -0.187500000000      0.062500000000      0.062500000000
     -0.062500000000      0.062500000000      0.062500000000
      0.062500000000      0.187500000000      0.062500000000
      0.187500000000      0.187500000000      0.062500000000
      0.312500000000      0.187500000000      0.062500000000
      0.437500000000      0.187500000000      0.062500000000
     -0.437500000000      0.187500000000      0.062500000000
     -0.312500000000      0.187500000000      0.062500000000
     -0.187500000000      0.187500000000      0.062500000000
     -0.062500000000      0.187500000000      0.062500000000
      0.062500000000      0.312500000000      0.062500000000
      0.187500000000      0.312500000000      0.062500000000
      0.312500000000      0.312500000000      0.062500000000
      0.437500000000      0.312500000000      0.062500000000
     -0.437500000000      0.312500000000      0.062500000000
     -0.312500000000      0.312500000000      0.062500000000
     -0.187500000000      0.312500000000      0.062500000000
     -0.062500000000      0.312500000000      0.062500000000
      0.062500000000      0.437500000000      0.062500000000
      0.187500000000      0.437500000000      0.062500000000
      0.312500000000      0.437500000000      0.062500000000
      0.437500000000      0.437500000000      0.062500000000
     -0.437500000000      0.437500000000      0.062500000000
     -0.312500000000      0.437500000000      0.062500000000
     -0.187500000000      0.437500000000      0.062500000000
     -0.062500000000      0.437500000000      0.062500000000
      0.062500000000     -0.437500000000      0.062500000000
      0.187500000000     -0.437500000000      0.062500000000
      0.312500000000     -0.437500000000      0.062500000000
      0.437500000000     -0.437500000000      0.062500000000
     -0.437500000000     -0.437500000000      0.062500000000
     -0.312500000000     -0.437500000000      0.062500000000
     -0.187500000000     -0.437500000000      0.062500000000
     -0.062500000000     -0.437500000000      0.062500000000
      0.062500000000     -0.312500000000      0.062500000000
      0.187500000000     -0.312500000000      0.062500000000
      0.312500000000     -0.312500000000      0.062500000000
      0.437500000000     -0.312500000000      0.062500000000
     -0.437500000000     -0.312500000000      0.062500000000
     -0.312500000000     -0.312500000000      0.062500000000
     -0.187500000000     -0.312500000000      0.062500000000
     -0.062500000000     -0.312500000000      0.062500000000
      0.062500000000     -0.187500000000      0.062500000000
      0.187500000000     -0.187500000000      0.062500000000
      0.312500000000     -0.187500000000      0.062500000000
      0.437500000000     -0.187500000000      0.062500000000
     -0.437500000000     -0.187500000000      0.062500000000
     -0.312500000000     -0.187500000000      0.062500000000
     -0.187500000000     -0.187500000000      0.062500000000
     -0.062500000000     -0.187500000000      0.062500000000
      0.062500000000     -0.062500000000      0.062500000000
      0.187500000000     -0.062500000000      0.062500000000
      0.312500000000     -0.062500000000      0.062500000000
      0.437500000000     -0.062500000000      0.062500000000
     -0.437500000000     -0.062500000000      0.062500000000
     -0.312500000000     -0.062500000000      0.062500000000
     -0.187500000000     -0.062500000000      0.062500000000
     -0.062500000000     -0.062500000000      0.062500000000
      0.062500000000      0.062500000000      0.187500000000
      0.187500000000      0.062500000000      0.187500000000
      0.312500000000      0.062500000000      0.187500000000
      0.437500000000      0.062500000000      0.187500000000
     -0.437500000000      0.062500000000      0.187500000000
     -0.312500000000      0.062500000000      0.187500000000
     -0.187500000000      0.062500000000      0.187500000000
     -0.062500000000      0.062500000000      0.187500000000
      0.062500000000      0.187500000000      0.187500000000
      0.187500000000      0.187500000000      0.187500000000
      0.312500000000      0.187500000000      0.187500000000
      0.437500000000      0.187500000000      0.187500000000
     -0.437500000000      0.187500000000      0.187500000000
     -0.312500000000      0.187500000000      0.187500000000
     -0.187500000000      0.187500000000      0.187500000000
     -0.062500000000      0.187500000000      0.187500000000
      0.062500000000      0.312500000000      0.187500000000
      0.187500000000      0.312500000000      0.187500000000
      0.312500000000      0.312500000000      0.187500000000
      0.437500000000      0.312500000000      0.187500000000
     -0.437500000000      0.312500000000      0.187500000000
     -0.312500000000      0.312500000000      0.187500000000
     -0.187500000000      0.312500000000      0.187500000000
     -0.062500000000      0.312500000000      0.187500000000
      0.062500000000      0.437500000000      0.187500000000
      0.187500000000      0.437500000000      0.187500000000
      0.312500000000      0.437500000000      0.187500000000
      0.437500000000      0.437500000000      0.187500000000
     -0.437500000000      0.437500000000      0.187500000000
     -0.312500000000      0.437500000000      0.187500000000
     -0.187500000000      0.437500000000      0.187500000000
     -0.062500000000      0.437500000000      0.187500000000
      0.062500000000     -0.437500000000      0.187500000000
      0.187500000000     -0.437500000000      0.187500000000
      0.312500000000     -0.437500000000      0.187500000000
      0.437500000000     -0.437500000000      0.187500000000
     -0.437500000000     -0.437500000000      0.187500000000
     -0.312500000000     -0.437500000000      0.187500000000
     -0.187500000000     -0.437500000000      0.187500000000
     -0.062500000000     -0.437500000000      0.187500000000
      0.062500000000     -0.312500000000      0.187500000000
      0.187500000000     -0.312500000000      0.187500000000
      0.312500000000     -0.312500000000      0.187500000000
      0.437500000000     -0.312500000000      0.187500000000
     -0.437500000000     -0.312500000000      0.187500000000
     -0.312500000000     -0.312500000000      0.187500000000
     -0.187500000000     -0.312500000000      0.187500000000
     -0.062500000000     -0.312500000000      0.187500000000
      0.062500000000     -0.187500000000      0.187500000000
      0.187500000000     -0.187500000000      0.187500000000
      0.312500000000     -0.187500000000      0.187500000000
      0.437500000000     -0.187500000000      0.187500000000
     -0.437500000000     -0.187500000000      0.187500000000
     -0.312500000000     -0.187500000000      0.187500000000
     -0.187500000000     -0.187500000000      0.187500000000
     -0.062500000000     -0.187500000000      0.187500000000
      0.062500000000     -0.062500000000      0.187500000000
      0.187500000000     -0.062500000000      0.187500000000
      0.312500000000     -0.062500000000      0.187500000000
      0.437500000000     -0.062500000000      0.187500000000
     -0.437500000000     -0.062500000000      0.187500000000
     -0.312500000000     -0.062500000000      0.187500000000
     -0.187500000000     -0.062500000000      0.187500000000
     -0.062500000000     -0.062500000000      0.187500000000
      0.062500000000      0.062500000000      0.312500000000
      0.187500000000      0.062500000000      0.312500000000
      0.312500000000      0.062500000000      0.312500000000
      0.437500000000      0.062500000000      0.312500000000
     -0.437500000000      0.062500000000      0.312500000000
     -0.312500000000      0.062500000000      0.312500000000
     -0.187500000000      0.062500000000      0.312500000000
     -0.062500000000      0.062500000000      0.312500000000
      0.062500000000      0.187500000000      0.312500000000
      0.187500000000      0.187500000000      0.312500000000
      0.312500000000      0.187500000000      0.312500000000
      0.437500000000      0.187500000000      0.312500000000
     -0.437500000000      0.187500000000      0.312500000000
     -0.312500000000      0.187500000000      0.312500000000
     -0.187500000000      0.187500000000      0.312500000000
     -0.062500000000      0.187500000000      0.312500000000
      0.062500000000      0.312500000000      0.312500000000
      0.187500000000      0.312500000000      0.312500000000
      0.312500000000      0.312500000000      0.312500000000
      0.437500000000      0.312500000000      0.312500000000
     -0.437500000000      0.312500000000      0.312500000000
     -0.312500000000      0.312500000000      0.312500000000
     -0.187500000000      0.312500000000      0.312500000000
     -0.062500000000      0.312500000000      0.312500000000
      0.062500000000      0.437500000000      0.312500000000
      0.187500000000      0.437500000000      0.312500000000
      0.312500000000      0.437500000000      0.312500000000
      0.437500000000      0.437500000000      0.312500000000
     -0.437500000000      0.437500000000      0.312500000000
     -0.312500000000      0.437500000000      0.312500000000
     -0.187500000000      0.437500000000      0.312500000000
     -0.062500000000      0.437500000000      0.312500000000
      0.062500000000     -0.437500000000      0.312500000000
      0.187500000000     -0.437500000000      0.312500000000
      0.312500000000     -0.437500000000      0.312500000000
      0.437500000000     -0.437500000000      0.312500000000
     -0.437500000000     -0.437500000000      0.312500000000
     -0.312500000000     -0.437500000000      0.312500000000
     -0.187500000000     -0.437500000000      0.312500000000
     -0.062500000000     -0.437500000000      0.312500000000
      0.062500000000     -0.312500000000      0.312500000000
      0.187500000000     -0.312500000000      0.312500000000
      0.312500000000     -0.312500000000      0.312500000000
      0.437500000000     -0.312500000000      0.312500000000
     -0.437500000000     -0.312500000000      0.312500000000
     -0.312500000000     -0.312500000000      0.312500000000
     -0.187500000000     -0.312500000000      0.312500000000
     -0.062500000000     -0.312500000000      0.312500000000
      0.062500000000     -0.187500000000      0.312500000000
      0.187500000000     -0.187500000000      0.312500000000
      0.312500000000     -0.187500000000      0.312500000000
      0.437500000000     -0.187500000000      0.312500000000
     -0.437500000000     -0.187500000000      0.312500000000
     -0.312500000000     -0.187500000000      0.312500000000
     -0.187500000000     -0.187500000000      0.312500000000
     -0.062500000000     -0.187500000000      0.312500000000
      0.062500000000     -0.062500000000      0.312500000000
      0.187500000000     -0.062500000000      0.312500000000
      0.312500000000     -0.062500000000      0.312500000000
      0.437500000000     -0.062500000000      0.312500000000
     -0.437500000000     -0.062500000000      0.312500000000
     -0.312500000000     -0.062500000000      0.312500000000
     -0.187500000000     -0.062500000000      0.312500000000
     -0.062500000000     -0.062500000000      0.312500000000
      0.062500000000      0.062500000000      0.437500000000
      0.187500000000      0.062500000000      0.437500000000
      0.312500000000      0.062500000000      0.437500000000
      0.437500000000      0.062500000000      0.437500000000
     -0.437500000000      0.062500000000      0.437500000000
     -0.312500000000      0.062500000000      0.437500000000
     -0.187500000000      0.062500000000      0.437500000000
     -0.062500000000      0.062500000000      0.437500000000
      0.062500000000      0.187500000000      0.437500000000
      0.187500000000      0.187500000000      0.437500000000
      0.312500000000      0.187500000000      0.437500000000
      0.437500000000      0.187500000000      0.437500000000
     -0.437500000000      0.187500000000      0.437500000000
     -0.312500000000      0.187500000000      0.437500000000
     -0.187500000000      0.187500000000      0.437500000000
     -0.062500000000      0.187500000000      0.437500000000
      0.062500000000      0.312500000000      0.437500000000
      0.187500000000      0.312500000000      0.437500000000
      0.312500000000      0.312500000000      0.437500000000
      0.437500000000      0.312500000000      0.437500000000
     -0.437500000000      0.312500000000      0.437500000000
     -0.312500000000      0.312500000000      0.437500000000
     -0.187500000000      0.312500000000      0.437500000000
     -0.062500000000      0.312500000000      0.437500000000
      0.062500000000      0.437500000000      0.437500000000
      0.187500000000      0.437500000000      0.437500000000
      0.312500000000      0.437500000000      0.437500000000
      0.437500000000      0.437500000000      0.437500000000
     -0.437500000000      0.437500000000      0.437500000000
     -0.312500000000      0.437500000000      0.437500000000
     -0.187500000000      0.437500000000      0.437500000000
     -0.062500000000      0.437500000000      0.437500000000
      0.062500000000     -0.437500000000      0.437500000000
      0.187500000000     -0.437500000000      0.437500000000
      0.312500000000     -0.437500000000      0.437500000000
      0.437500000000     -0.437500000000      0.437500000000
     -0.437500000000     -0.437500000000      0.437500000000
     -0.312500000000     -0.437500000000      0.437500000000
     -0.187500000000     -0.437500000000      0.437500000000
     -0.062500000000     -0.437500000000      0.437500000000
      0.062500000000     -0.312500000000      0.437500000000
      0.187500000000     -0.312500000000      0.437500000000
      0.312500000000     -0.312500000000      0.437500000000
      0.437500000000     -0.312500000000      0.437500000000
     -0.437500000000     -0.312500000000      0.437500000000
     -0.312500000000     -0.312500000000      0.437500000000
     -0.187500000000     -0.312500000000      0.437500000000
     -0.062500000000     -0.312500000000      0.437500000000
      0.062500000000     -0.187500000000      0.437500000000
      0.187500000000     -0.187500000000      0.437500000000
      0.312500000000     -0.187500000000      0.437500000000
      0.437500000000     -0.187500000000      0.437500000000
     -0.437500000000     -0.187500000000      0.437500000000
     -0.312500000000     -0.187500000000      0.437500000000
     -0.187500000000     -0.187500000000      0.437500000000
     -0.062500000000     -0.187500000000      0.437500000000
      0.062500000000     -0.062500000000      0.437500000000
      0.187500000000     -0.062500000000      0.437500000000
      0.312500000000     -0.062500000000      0.437500000000
      0.437500000000     -0.062500000000      0.437500000000
     -0.437500000000     -0.062500000000      0.437500000000
     -0.312500000000     -0.062500000000      0.437500000000
     -0.187500000000     -0.062500000000      0.437500000000
     -0.062500000000     -0.062500000000      0.437500000000
      0.062500000000      0.062500000000     -0.437500000000
      0.187500000000      0.062500000000     -0.437500000000
      0.312500000000      0.062500000000     -0.437500000000
      0.437500000000      0.062500000000     -0.437500000000
     -0.437500000000      0.062500000000     -0.437500000000
     -0.312500000000      0.062500000000     -0.437500000000
     -0.187500000000      0.062500000000     -0.437500000000
     -0.062500000000      0.062500000000     -0.437500000000
      0.062500000000      0.187500000000     -0.437500000000
      0.187500000000      0.187500000000     -0.437500000000
      0.312500000000      0.187500000000     -0.437500000000
      0.437500000000      0.187500000000     -0.437500000000
     -0.437500000000      0.187500000000     -0.437500000000
     -0.312500000000      0.187500000000     -0.437500000000
     -0.187500000000      0.187500000000     -0.437500000000
     -0.062500000000      0.187500000000     -0.437500000000
      0.062500000000      0.312500000000     -0.437500000000
      0.187500000000      0.312500000000     -0.437500000000
      0.312500000000      0.312500000000     -0.437500000000
      0.437500000000      0.312500000000     -0.437500000000
     -0.437500000000      0.312500000000     -0.437500000000
     -0.312500000000      0.312500000000     -0.437500000000
     -0.187500000000      0.312500000000     -0.437500000000
     -0.062500000000      0.312500000000     -0.437500000000
      0.062500000000      0.437500000000     -0.437500000000
      0.187500000000      0.437500000000     -0.437500000000
      0.312500000000      0.437500000000     -0.437500000000
      0.437500000000      0.437500000000     -0.437500000000
     -0.437500000000      0.437500000000     -0.437500000000
     -0.312500000000      0.437500000000     -0.437500000000
     -0.187500000000      0.437500000000     -0.437500000000
     -0.062500000000      0.437500000000     -0.437500000000
      0.062500000000     -0.437500000000     -0.437500000000
      0.187500000000     -0.437500000000     -0.437500000000
      0.312500000000     -0.437500000000     -0.437500000000
      0.437500000000     -0.437500000000     -0.437500000000
     -0.437500000000     -0.437500000000     -0.437500000000
     -0.312500000000     -0.437500000000     -0.437500000000
     -0.187500000000     -0.437500000000     -0.437500000000
     -0.062500000000     -0.437500000000     -0.437500000000
      0.062500000000     -0.312500000000     -0.437500000000
      0.187500000000     -0.312500000000     -0.437500000000
      0.312500000000     -0.312500000000     -0.437500000000
      0.437500000000     -0.312500000000     -0.437500000000
     -0.437500000000     -0.312500000000     -0.437500000000
     -0.312500000000     -0.312500000000     -0.437500000000
     -0.187500000000     -0.312500000000     -0.437500000000
     -0.062500000000     -0.312500000000     -0.437500000000
      0.062500000000     -0.187500000000     -0.437500000000
      0.187500000000     -0.187500000000     -0.437500000000
      0.312500000000     -0.187500000000     -0.437500000000
      0.437500000000     -0.187500000000     -0.437500000000
     -0.437500000000     -0.187500000000     -0.437500000000
     -0.312500000000     -0.187500000000     -0.437500000000
     -0.187500000000     -0.187500000000     -0.437500000000
     -0.062500000000     -0.187500000000     -0.437500000000
      0.062500000000     -0.062500000000     -0.437500000000
      0.187500000000     -0.062500000000     -0.437500000000
      0.312500000000     -0.062500000000     -0.437500000000
      0.437500000000     -0.062500000000     -0.437500000000
     -0.437500000000     -0.062500000000     -0.437500000000
     -0.312500000000     -0.062500000000     -0.437500000000
     -0.187500000000     -0.062500000000     -0.437500000000
     -0.062500000000     -0.062500000000     -0.437500000000
      0.062500000000      0.062500000000     -0.312500000000
      0.187500000000      0.062500000000     -0.312500000000
      0.312500000000      0.062500000000     -0.312500000000
      0.437500000000      0.062500000000     -0.312500000000
     -0.437500000000      0.062500000000     -0.312500000000
     -0.312500000000      0.062500000000     -0.312500000000
     -0.187500000000      0.062500000000     -0.312500000000
     -0.062500000000      0.062500000000     -0.312500000000
      0.062500000000      0.187500000000     -0.312500000000
      0.187500000000      0.187500000000     -0.312500000000
      0.312500000000      0.187500000000     -0.312500000000
      0.437500000000      0.187500000000     -0.312500000000
     -0.437500000000      0.187500000000     -0.312500000000
     -0.312500000000      0.187500000000     -0.312500000000
     -0.187500000000      0.187500000000     -0.312500000000
     -0.062500000000      0.187500000000     -0.312500000000
      0.062500000000      0.312500000000     -0.312500000000
      0.187500000000      0.312500000000     -0.312500000000
      0.312500000000      0.312500000000     -0.312500000000
      0.437500000000      0.312500000000     -0.312500000000
     -0.437500000000      0.312500000000     -0.312500000000
     -0.312500000000      0.312500000000     -0.312500000000
     -0.187500000000      0.312500000000     -0.312500000000
     -0.062500000000      0.312500000000     -0.312500000000
      0.062500000000      0.437500000000     -0.312500000000
      0.187500000000      0.437500000000     -0.312500000000
      0.312500000000      0.437500000000     -0.312500000000
      0.437500000000      0.437500000000     -0.312500000000
     -0.437500000000      0.437500000000     -0.312500000000
     -0.312500000000      0.437500000000     -0.312500000000
     -0.187500000000      0.437500000000     -0.312500000000
     -0.062500000000      0.437500000000     -0.312500000000
      0.062500000000     -0.437500000000     -0.312500000000
      0.187500000000     -0.437500000000     -0.312500000000
      0.312500000000     -0.437500000000     -0.312500000000
      0.437500000000     -0.437500000000     -0.312500000000
     -0.437500000000     -0.437500000000     -0.312500000000
     -0.312500000000     -0.437500000000     -0.312500000000
     -0.187500000000     -0.437500000000     -0.312500000000
     -0.062500000000     -0.437500000000     -0.312500000000
      0.062500000000     -0.312500000000     -0.312500000000
      0.187500000000     -0.312500000000     -0.312500000000
      0.312500000000     -0.312500000000     -0.312500000000
      0.437500000000     -0.312500000000     -0.312500000000
     -0.437500000000     -0.312500000000     -0.312500000000
     -0.312500000000     -0.312500000000     -0.312500000000
     -0.187500000000     -0.312500000000     -0.312500000000
     -0.062500000000     -0.312500000000     -0.312500000000
      0.062500000000     -0.187500000000     -0.312500000000
      0.187500000000     -0.187500000000     -0.312500000000
      0.312500000000     -0.187500000000     -0.312500000000
      0.437500000000     -0.187500000000     -0.312500000000
     -0.437500000000     -0.187500000000     -0.312500000000
     -0.312500000000     -0.187500000000     -0.312500000000
     -0.187500000000     -0.187500000000     -0.312500000000
     -0.062500000000     -0.187500000000     -0.312500000000
      0.062500000000     -0.062500000000     -0.312500000000
      0.187500000000     -0.062500000000     -0.312500000000
      0.312500000000     -0.062500000000     -0.312500000000
      0.437500000000     -0.062500000000     -0.312500000000
     -0.437500000000     -0.062500000000     -0.312500000000
     -0.312500000000     -0.062500000000     -0.312500000000
     -0.187500000000     -0.062500000000     -0.312500000000
     -0.062500000000     -0.062500000000     -0.312500000000
      0.062500000000      0.062500000000     -0.187500000000
      0.187500000000      0.062500000000     -0.187500000000
      0.312500000000      0.062500000000     -0.187500000000
      0.437500000000      0.062500000000     -0.187500000000
     -0.437500000000      0.062500000000     -0.187500000000
     -0.312500000000      0.062500000000     -0.187500000000
     -0.187500000000      0.062500000000     -0.187500000000
     -0.062500000000      0.062500000000     -0.187500000000
      0.062500000000      0.187500000000     -0.187500000000
      0.187500000000      0.187500000000     -0.187500000000
      0.312500000000      0.187500000000     -0.187500000000
      0.437500000000      0.187500000000     -0.187500000000
     -0.437500000000      0.187500000000     -0.187500000000
     -0.312500000000      0.187500000000     -0.187500000000
     -0.187500000000      0.187500000000     -0.187500000000
     -0.062500000000      0.187500000000     -0.187500000000
      0.062500000000      0.312500000000     -0.187500000000
      0.187500000000      0.312500000000     -0.187500000000
      0.312500000000      0.312500000000     -0.187500000000
      0.437500000000      0.312500000000     -0.187500000000
     -0.437500000000      0.312500000000     -0.187500000000
     -0.312500000000      0.312500000000     -0.187500000000
     -0.187500000000      0.312500000000     -0.187500000000
     -0.062500000000      0.312500000000     -0.187500000000
      0.062500000000      0.437500000000     -0.187500000000
      0.187500000000      0.437500000000     -0.187500000000
      0.312500000000      0.437500000000     -0.187500000000
      0.437500000000      0.437500000000     -0.187500000000
     -0.437500000000      0.437500000000     -0.187500000000
     -0.312500000000      0.437500000000     -0.187500000000
     -0.187500000000      0.437500000000     -0.187500000000
     -0.062500000000      0.437500000000     -0.187500000000
      0.062500000000     -0.437500000000     -0.187500000000
      0.187500000000     -0.437500000000     -0.187500000000
      0.312500000000     -0.437500000000     -0.187500000000
      0.437500000000     -0.437500000000     -0.187500000000
     -0.437500000000     -0.437500000000     -0.187500000000
     -0.312500000000     -0.437500000000     -0.187500000000
     -0.187500000000     -0.437500000000     -0.187500000000
     -0.062500000000     -0.437500000000     -0.187500000000
      0.062500000000     -0.312500000000     -0.187500000000
      0.187500000000     -0.312500000000     -0.187500000000
      0.312500000000     -0.312500000000     -0.187500000000
      0.437500000000     -0.312500000000     -0.187500000000
     -0.437500000000     -0.312500000000     -0.187500000000
     -0.312500000000     -0.312500000000     -0.187500000000
     -0.187500000000     -0.312500000000     -0.187500000000
     -0.062500000000     -0.312500000000     -0.187500000000
      0.062500000000     -0.187500000000     -0.187500000000
      0.187500000000     -0.187500000000     -0.187500000000
      0.312500000000     -0.187500000000     -0.187500000000
      0.437500000000     -0.187500000000     -0.187500000000
     -0.437500000000     -0.187500000000     -0.187500000000
     -0.312500000000     -0.187500000000     -0.187500000000
     -0.187500000000     -0.187500000000     -0.187500000000
     -0.062500000000     -0.187500000000     -0.187500000000
      0.062500000000     -0.062500000000     -0.187500000000
      0.187500000000     -0.062500000000     -0.187500000000
      0.312500000000     -0.062500000000     -0.187500000000
      0.437500000000     -0.062500000000     -0.187500000000
     -0.437500000000     -0.062500000000     -0.187500000000
     -0.312500000000     -0.062500000000     -0.187500000000
     -0.187500000000     -0.062500000000     -0.187500000000
     -0.062500000000     -0.062500000000     -0.187500000000
      0.062500000000      0.062500000000     -0.062500000000
      0.187500000000      0.062500000000     -0.062500000000
      0.312500000000      0.062500000000     -0.062500000000
      0.437500000000      0.062500000000     -0.062500000000
     -0.437500000000      0.062500000000     -0.062500000000
     -0.312500000000      0.062500000000     -0.062500000000
     -0.187500000000      0.062500000000     -0.062500000000
     -0.062500000000      0.062500000000     -0.062500000000
      0.062500000000      0.187500000000     -0.062500000000
      0.187500000000      0.187500000000     -0.062500000000
      0.312500000000      0.187500000000     -0.062500000000
      0.437500000000      0.187500000000     -0.062500000000
     -0.437500000000      0.187500000000     -0.062500000000
     -0.312500000000      0.187500000000     -0.062500000000
     -0.187500000000      0.187500000000     -0.062500000000
     -0.062500000000      0.187500000000     -0.062500000000
      0.062500000000      0.312500000000     -0.062500000000
      0.187500000000      0.312500000000     -0.062500000000
      0.312500000000      0.312500000000     -0.062500000000
      0.437500000000      0.312500000000     -0.062500000000