Ta4 As4  [BCT,BCT2,tI8] (STD_PRIM doi:10
   1.00000000000000     
    -1.7119018067803362    1.7119018067803362    5.8036874937375336
     1.7119018067803362   -1.7119018067803362    5.8036874937375336
     1.7119018067803362    1.7119018067803362   -5.8036874937375336
   As   Ta
     2     2
Direct
  0.7502374745104763  0.7502374745104763 -0.0000000000000000
  0.0002374745104762  0.5002374745104763  0.5000000000000000
  0.3323619264895268  0.3323619264895268 -0.0000000000000000
  0.5823619264895268  0.0823619264895269  0.5000000000000000
 
  0.00000000E+00  0.00000000E+00  0.00000000E+00
  0.00000000E+00  0.00000000E+00  0.00000000E+00
  0.00000000E+00  0.00000000E+00  0.00000000E+00
  0.00000000E+00  0.00000000E+00  0.00000000E+00
