
restart = plot
#wannier_plot = T

begin projections
   Ta:dz2;dxz;dyz;dx2-y2;dxy
   As:pz;px;py
end projections

exclude_bands 1-10, 31-48
dis_win_min  =   2
dis_win_max  =  20
dis_froz_min =   2
dis_froz_max =  12

dis_num_iter =   0
num_iter     =   0

write_hr = T
use_ws_distance = T

bands_plot = T
begin kpoint_path
   G   0.0000   0.0000   0.0000   X   0.0000   0.0000   0.5000
   X   0.0000   0.0000   0.5000   Y  -0.0435   0.0435   0.5000
   Y  -0.0435   0.0435   0.5000   S  -0.2718   0.2718   0.2718
   S  -0.2718   0.2718   0.2718   G   0.0000   0.0000   0.0000
   G   0.0000   0.0000   0.0000   Z   0.5000   0.5000  -0.5000
   Z   0.5000   0.5000  -0.5000   S1  0.2718   0.7282  -0.2718
   S1  0.2718   0.7282  -0.2718   N   0.0000   0.5000   0.0000
   N   0.0000   0.5000   0.0000   P   0.2500   0.2500   0.2500
   P   0.2500   0.2500   0.2500   Y1  0.5000   0.5000  -0.0435
   Y1  0.5000   0.5000  -0.0435   Z   0.5000   0.5000  -0.5000
   X   0.0000   0.0000   0.5000   P   0.2500   0.2500   0.2500
end kpoint_path
bands_num_points = 40
bands_plot_format gnuplot xmgrace

# This part was generated automatically by VASP
num_bands = 20
num_wann = 16
begin unit_cell_cart
    -1.7119018     1.7119018     5.8036875
     1.7119018    -1.7119018     5.8036875
     1.7119018     1.7119018    -5.8036875
end unit_cell_cart
begin atoms_cart
As       0.0000000     0.0000000     8.7082877
As       1.7119018     0.0000000     0.0027565
Ta       0.0000000     0.0000000     3.8578495
Ta       0.0000000     1.7119018     0.9560058
end atoms_cart
mp_grid =     6     6     6
begin kpoints
      0.083333333333      0.083333333333      0.083333333333
      0.250000000000      0.083333333333      0.083333333333
      0.416666666667      0.083333333333      0.083333333333
     -0.083333333333      0.083333333333      0.083333333333
      0.250000000000      0.250000000000      0.083333333333
      0.416666666667      0.250000000000      0.083333333333
     -0.416666666667      0.250000000000      0.083333333333
     -0.250000000000      0.250000000000      0.083333333333
     -0.083333333333      0.250000000000      0.083333333333
      0.416666666667      0.416666666667      0.083333333333
     -0.416666666667      0.416666666667      0.083333333333
     -0.250000000000      0.416666666667      0.083333333333
     -0.083333333333      0.416666666667      0.083333333333
     -0.416666666667     -0.416666666667      0.083333333333
     -0.250000000000     -0.416666666667      0.083333333333
     -0.083333333333     -0.416666666667      0.083333333333
     -0.250000000000     -0.250000000000      0.083333333333
     -0.083333333333     -0.250000000000      0.083333333333
     -0.083333333333     -0.083333333333      0.083333333333
      0.250000000000      0.250000000000      0.250000000000
     -0.250000000000      0.250000000000      0.250000000000
     -0.416666666667      0.416666666667      0.250000000000
     -0.250000000000      0.416666666667      0.250000000000
     -0.416666666667     -0.416666666667      0.250000000000
     -0.250000000000     -0.416666666667      0.250000000000
     -0.250000000000     -0.250000000000      0.250000000000
     -0.416666666667      0.416666666667      0.416666666667
     -0.416666666667     -0.416666666667      0.416666666667
      0.083333333333      0.083333333333     -0.250000000000
     -0.083333333333      0.250000000000     -0.083333333333
      0.250000000000     -0.083333333333     -0.083333333333
      0.083333333333      0.250000000000     -0.416666666667
     -0.083333333333      0.416666666667     -0.250000000000
      0.416666666667     -0.083333333333     -0.083333333333
      0.416666666667     -0.083333333333     -0.250000000000
     -0.083333333333      0.416666666667     -0.083333333333
      0.250000000000      0.083333333333     -0.416666666667
      0.083333333333      0.250000000000      0.083333333333
      0.083333333333      0.416666666667     -0.583333333333
     -0.083333333333      0.583333333333     -0.416666666667
      0.583333333333     -0.083333333333     -0.083333333333
      0.583333333333     -0.083333333333     -0.416666666667
     -0.083333333333      0.583333333333     -0.083333333333
      0.416666666667      0.083333333333     -0.583333333333
      0.083333333333      0.416666666667      0.083333333333
      0.083333333333     -0.083333333333     -0.083333333333
      0.083333333333     -0.083333333333      0.083333333333
     -0.083333333333      0.083333333333     -0.083333333333
      0.250000000000      0.250000000000     -0.583333333333
     -0.083333333333      0.583333333333     -0.250000000000
      0.583333333333     -0.083333333333     -0.250000000000
      0.250000000000      0.416666666667     -0.750000000000
     -0.083333333333      0.750000000000     -0.416666666667
      0.750000000000     -0.083333333333     -0.250000000000
      0.750000000000     -0.083333333333     -0.416666666667
     -0.083333333333      0.750000000000     -0.250000000000
      0.416666666667      0.250000000000     -0.750000000000
      0.250000000000      0.416666666667      0.083333333333
      0.250000000000     -0.416666666667      0.083333333333
     -0.083333333333     -0.083333333333      0.416666666667
     -0.083333333333     -0.083333333333     -0.250000000000
      0.250000000000     -0.250000000000     -0.083333333333
     -0.083333333333      0.083333333333      0.250000000000
      0.083333333333     -0.083333333333     -0.250000000000
      0.083333333333     -0.083333333333      0.250000000000
     -0.083333333333      0.083333333333     -0.250000000000
     -0.250000000000      0.250000000000     -0.083333333333
      0.250000000000     -0.250000000000      0.083333333333
      0.250000000000     -0.083333333333     -0.250000000000
      0.250000000000     -0.083333333333      0.083333333333
     -0.083333333333      0.250000000000     -0.250000000000
     -0.083333333333      0.916666666667     -0.416666666667
      0.416666666667     -0.416666666667     -0.083333333333
     -0.083333333333      0.083333333333      0.416666666667
      0.083333333333     -0.083333333333     -0.416666666667
      0.083333333333     -0.083333333333      0.416666666667
     -0.083333333333      0.083333333333     -0.416666666667
     -0.416666666667      0.416666666667     -0.083333333333
      0.416666666667     -0.416666666667      0.083333333333
      0.416666666667     -0.250000000000     -0.250000000000
     -0.083333333333      0.250000000000      0.250000000000
      0.250000000000     -0.083333333333     -0.416666666667
      0.250000000000     -0.083333333333      0.250000000000
     -0.083333333333      0.250000000000     -0.416666666667
     -0.250000000000      0.416666666667     -0.250000000000
      0.416666666667     -0.250000000000      0.083333333333
      0.416666666667     -0.083333333333     -0.416666666667
      0.416666666667     -0.083333333333      0.083333333333
     -0.083333333333      0.416666666667     -0.416666666667
     -0.416666666667     -0.416666666667      0.750000000000
     -0.083333333333     -0.750000000000      0.416666666667
     -0.750000000000     -0.083333333333      0.416666666667
     -0.416666666667     -0.250000000000      0.583333333333
     -0.083333333333     -0.583333333333      0.250000000000
     -0.583333333333     -0.083333333333      0.416666666667
     -0.583333333333     -0.083333333333      0.250000000000
     -0.083333333333     -0.583333333333      0.416666666667
     -0.250000000000     -0.416666666667      0.583333333333
     -0.416666666667     -0.250000000000      0.083333333333
     -0.416666666667     -0.083333333333      0.416666666667
     -0.416666666667     -0.083333333333      0.083333333333
     -0.083333333333     -0.416666666667      0.416666666667
     -0.250000000000     -0.250000000000      0.416666666667
     -0.083333333333     -0.416666666667      0.250000000000
     -0.416666666667     -0.083333333333      0.250000000000
     -0.250000000000     -0.083333333333      0.250000000000
     -0.250000000000     -0.083333333333      0.083333333333
     -0.083333333333     -0.250000000000      0.250000000000
     -0.250000000000      0.750000000000     -0.250000000000
      0.250000000000     -0.250000000000     -0.250000000000
      0.250000000000     -0.250000000000      0.250000000000
     -0.250000000000      0.250000000000     -0.250000000000
      0.416666666667     -0.416666666667     -0.250000000000
     -0.250000000000      0.250000000000      0.416666666667
      0.250000000000     -0.250000000000     -0.416666666667
      0.250000000000     -0.250000000000      0.416666666667
     -0.250000000000      0.250000000000     -0.416666666667
     -0.416666666667      0.416666666667     -0.250000000000
      0.416666666667     -0.416666666667      0.250000000000
      0.416666666667     -0.250000000000     -0.416666666667
      0.416666666667     -0.250000000000      0.250000000000
     -0.250000000000      0.416666666667     -0.416666666667
     -0.416666666667     -0.416666666667      0.583333333333
     -0.250000000000     -0.583333333333      0.416666666667
     -0.583333333333     -0.250000000000      0.416666666667
     -0.416666666667     -0.250000000000      0.416666666667
     -0.416666666667     -0.250000000000      0.250000000000
     -0.250000000000     -0.416666666667      0.416666666667
      0.416666666667     -0.416666666667     -0.416666666667
      0.416666666667     -0.416666666667      0.416666666667
     -0.416666666667      0.416666666667     -0.416666666667
     -0.083333333333     -0.083333333333     -0.083333333333
     -0.083333333333     -0.083333333333      0.250000000000
      0.083333333333     -0.250000000000      0.083333333333
     -0.250000000000      0.083333333333      0.083333333333
     -0.250000000000     -0.083333333333     -0.083333333333
     -0.083333333333     -0.250000000000      0.416666666667
      0.083333333333     -0.416666666667      0.250000000000
     -0.416666666667      0.083333333333      0.083333333333
     -0.416666666667      0.083333333333      0.250000000000
      0.083333333333     -0.416666666667      0.083333333333
     -0.250000000000     -0.083333333333      0.416666666667
     -0.083333333333     -0.250000000000     -0.083333333333
     -0.250000000000     -0.250000000000     -0.083333333333
     -0.250000000000     -0.250000000000      0.583333333333
      0.083333333333     -0.583333333333      0.250000000000
     -0.583333333333      0.083333333333      0.250000000000
     -0.416666666667     -0.250000000000     -0.083333333333
     -0.250000000000     -0.416666666667      0.750000000000
      0.083333333333     -0.750000000000      0.416666666667
     -0.750000000000      0.083333333333      0.250000000000
     -0.750000000000      0.083333333333      0.416666666667
      0.083333333333     -0.750000000000      0.250000000000
     -0.416666666667     -0.250000000000      0.750000000000
     -0.250000000000     -0.416666666667     -0.083333333333
      0.416666666667     -0.250000000000     -0.083333333333
     -0.250000000000      0.416666666667     -0.083333333333
      0.083333333333      0.083333333333     -0.416666666667
      0.083333333333      0.083333333333      0.250000000000
      0.083333333333     -0.250000000000     -0.083333333333
     -0.250000000000      0.083333333333      0.250000000000
     -0.250000000000      0.083333333333     -0.083333333333
      0.083333333333     -0.250000000000      0.250000000000
     -0.416666666667     -0.416666666667     -0.083333333333
      0.083333333333     -0.916666666667      0.416666666667
      0.250000000000     -0.416666666667     -0.083333333333
     -0.416666666667      0.250000000000      0.250000000000
      0.083333333333     -0.250000000000     -0.250000000000
     -0.250000000000      0.083333333333      0.416666666667
     -0.250000000000      0.083333333333     -0.250000000000
      0.083333333333     -0.250000000000      0.416666666667
      0.250000000000     -0.416666666667      0.250000000000
     -0.416666666667      0.250000000000     -0.083333333333
      0.083333333333     -0.416666666667     -0.083333333333
     -0.416666666667      0.083333333333      0.416666666667
     -0.416666666667      0.083333333333     -0.083333333333
      0.083333333333     -0.416666666667      0.416666666667
      0.416666666667      0.416666666667     -0.083333333333
      0.416666666667      0.416666666667     -0.750000000000
      0.083333333333      0.750000000000     -0.416666666667
      0.750000000000      0.083333333333     -0.416666666667
      0.250000000000      0.416666666667     -0.083333333333
      0.416666666667      0.250000000000     -0.583333333333
      0.083333333333      0.583333333333     -0.250000000000
      0.583333333333      0.083333333333     -0.416666666667
      0.583333333333      0.083333333333     -0.250000000000
      0.083333333333      0.583333333333     -0.416666666667
      0.250000000000      0.416666666667     -0.583333333333
      0.416666666667      0.250000000000     -0.083333333333
      0.083333333333      0.416666666667     -0.083333333333
      0.416666666667      0.083333333333     -0.416666666667
      0.416666666667      0.083333333333     -0.083333333333
      0.083333333333      0.416666666667     -0.416666666667
      0.250000000000      0.250000000000     -0.083333333333
      0.250000000000      0.250000000000     -0.416666666667
      0.083333333333      0.416666666667     -0.250000000000
      0.416666666667      0.083333333333     -0.250000000000
      0.083333333333      0.250000000000     -0.083333333333
      0.250000000000      0.083333333333     -0.250000000000
      0.250000000000      0.083333333333     -0.083333333333
      0.083333333333      0.250000000000     -0.250000000000
      0.083333333333      0.083333333333     -0.083333333333
      0.250000000000     -0.416666666667     -0.250000000000
     -0.416666666667      0.250000000000      0.416666666667
     -0.416666666667      0.250000000000     -0.250000000000
      0.250000000000     -0.416666666667      0.416666666667
      0.416666666667      0.416666666667     -0.250000000000
      0.416666666667      0.416666666667     -0.583333333333
      0.250000000000      0.583333333333     -0.416666666667
      0.583333333333      0.250000000000     -0.416666666667
      0.250000000000      0.416666666667     -0.250000000000
      0.416666666667      0.250000000000     -0.416666666667
      0.416666666667      0.250000000000     -0.250000000000
      0.250000000000      0.416666666667     -0.416666666667
      0.250000000000      0.250000000000     -0.250000000000
      0.416666666667      0.416666666667     -0.416666666667
end kpoints
