
restart = plot
#wannier_plot = T

begin projections
   Hg:s;pz;px;py
end projections

exclude_bands 11-48
dis_win_min  = -10
dis_win_max  =  20
dis_froz_min =  -1
dis_froz_max =  12

dis_num_iter =   0
num_iter     =   0

write_hr       = T
use_ws_distance = T
write_xyz       = T

bands_plot = T
begin kpoint_path
   G   0.0000   0.0000   0.0000   X   0.5000   0.0000   0.5000
   X   0.5000   0.0000   0.5000   W   0.5000   0.2500   0.7500
   W   0.5000   0.2500   0.7500   K   0.3750   0.3750   0.7500
   K   0.3750   0.3750   0.7500   G   0.0000   0.0000   0.0000
   G   0.0000   0.0000   0.0000   L   0.5000   0.5000   0.5000
   L   0.5000   0.5000   0.5000   U   0.6250   0.2500   0.6250
   U   0.6250   0.2500   0.6250   W   0.5000   0.2500   0.7500
   W   0.5000   0.2500   0.7500   L   0.5000   0.5000   0.5000
   L   0.5000   0.5000   0.5000   K   0.3750   0.3750   0.7500
   U   0.6250   0.2500   0.6250   X   0.5000   0.0000   0.5000
end kpoint_path
bands_num_points = 40
bands_plot_format gnuplot xmgrace

# This part was generated automatically by VASP
num_bands = 10
num_wann = 4
begin unit_cell_cart
     0.0000000     2.2760376     2.2760376
     2.2760376     0.0000000     2.2760376
     2.2760376     2.2760376     0.0000000
end unit_cell_cart
begin atoms_cart
Hg       0.0000000     0.0000000     0.0000000
end atoms_cart
mp_grid =    12    12    12
begin kpoints
      0.041666666667      0.041666666667      0.041666666667
      0.125000000000      0.041666666667      0.041666666667
      0.208333333333      0.041666666667      0.041666666667
      0.291666666667      0.041666666667      0.041666666667
      0.375000000000      0.041666666667      0.041666666667
      0.458333333333      0.041666666667      0.041666666667
     -0.458333333333      0.041666666667      0.041666666667
     -0.375000000000      0.041666666667      0.041666666667
     -0.291666666667      0.041666666667      0.041666666667
     -0.208333333333      0.041666666667      0.041666666667
     -0.125000000000      0.041666666667      0.041666666667
     -0.041666666667      0.041666666667      0.041666666667
      0.125000000000      0.125000000000      0.041666666667
      0.208333333333      0.125000000000      0.041666666667
      0.291666666667      0.125000000000      0.041666666667
      0.375000000000      0.125000000000      0.041666666667
      0.458333333333      0.125000000000      0.041666666667
     -0.458333333333      0.125000000000      0.041666666667
     -0.375000000000      0.125000000000      0.041666666667
     -0.291666666667      0.125000000000      0.041666666667
     -0.208333333333      0.125000000000      0.041666666667
     -0.125000000000      0.125000000000      0.041666666667
     -0.041666666667      0.125000000000      0.041666666667
      0.208333333333      0.208333333333      0.041666666667
      0.291666666667      0.208333333333      0.041666666667
      0.375000000000      0.208333333333      0.041666666667
      0.458333333333      0.208333333333      0.041666666667
     -0.458333333333      0.208333333333      0.041666666667
     -0.375000000000      0.208333333333      0.041666666667
     -0.291666666667      0.208333333333      0.041666666667
     -0.208333333333      0.208333333333      0.041666666667
     -0.125000000000      0.208333333333      0.041666666667
     -0.041666666667      0.208333333333      0.041666666667
      0.291666666667      0.291666666667      0.041666666667
      0.375000000000      0.291666666667      0.041666666667
      0.458333333333      0.291666666667      0.041666666667
     -0.458333333333      0.291666666667      0.041666666667
     -0.375000000000      0.291666666667      0.041666666667
     -0.291666666667      0.291666666667      0.041666666667
     -0.208333333333      0.291666666667      0.041666666667
     -0.125000000000      0.291666666667      0.041666666667
     -0.041666666667      0.291666666667      0.041666666667
      0.375000000000      0.375000000000      0.041666666667
      0.458333333333      0.375000000000      0.041666666667
     -0.458333333333      0.375000000000      0.041666666667
     -0.375000000000      0.375000000000      0.041666666667
     -0.291666666667      0.375000000000      0.041666666667
     -0.208333333333      0.375000000000      0.041666666667
     -0.125000000000      0.375000000000      0.041666666667
     -0.041666666667      0.375000000000      0.041666666667
      0.458333333333      0.458333333333      0.041666666667
     -0.458333333333      0.458333333333      0.041666666667
     -0.375000000000      0.458333333333      0.041666666667
     -0.291666666667      0.458333333333      0.041666666667
     -0.208333333333      0.458333333333      0.041666666667
     -0.125000000000      0.458333333333      0.041666666667
     -0.041666666667      0.458333333333      0.041666666667
     -0.458333333333     -0.458333333333      0.041666666667
     -0.375000000000     -0.458333333333      0.041666666667
     -0.291666666667     -0.458333333333      0.041666666667
     -0.208333333333     -0.458333333333      0.041666666667
     -0.125000000000     -0.458333333333      0.041666666667
     -0.375000000000     -0.375000000000      0.041666666667
     -0.291666666667     -0.375000000000      0.041666666667
     -0.208333333333     -0.375000000000      0.041666666667
     -0.125000000000     -0.375000000000      0.041666666667
     -0.291666666667     -0.291666666667      0.041666666667
     -0.208333333333     -0.291666666667      0.041666666667
     -0.125000000000     -0.291666666667      0.041666666667
     -0.208333333333     -0.208333333333      0.041666666667
     -0.125000000000     -0.208333333333      0.041666666667
     -0.125000000000     -0.125000000000      0.041666666667
      0.125000000000      0.125000000000      0.125000000000
      0.208333333333      0.125000000000      0.125000000000
      0.291666666667      0.125000000000      0.125000000000
      0.375000000000      0.125000000000      0.125000000000
      0.458333333333      0.125000000000      0.125000000000
     -0.458333333333      0.125000000000      0.125000000000
     -0.375000000000      0.125000000000      0.125000000000
     -0.291666666667      0.125000000000      0.125000000000
     -0.208333333333      0.125000000000      0.125000000000
     -0.125000000000      0.125000000000      0.125000000000
      0.208333333333      0.208333333333      0.125000000000
      0.291666666667      0.208333333333      0.125000000000
      0.375000000000      0.208333333333      0.125000000000
      0.458333333333      0.208333333333      0.125000000000
     -0.458333333333      0.208333333333      0.125000000000
     -0.375000000000      0.208333333333      0.125000000000
     -0.291666666667      0.208333333333      0.125000000000
     -0.208333333333      0.208333333333      0.125000000000
     -0.125000000000      0.208333333333      0.125000000000
      0.291666666667      0.291666666667      0.125000000000
      0.375000000000      0.291666666667      0.125000000000
      0.458333333333      0.291666666667      0.125000000000
     -0.458333333333      0.291666666667      0.125000000000
     -0.375000000000      0.291666666667      0.125000000000
     -0.291666666667      0.291666666667      0.125000000000
     -0.208333333333      0.291666666667      0.125000000000
     -0.125000000000      0.291666666667      0.125000000000
      0.375000000000      0.375000000000      0.125000000000
      0.458333333333      0.375000000000      0.125000000000
     -0.458333333333      0.375000000000      0.125000000000
     -0.375000000000      0.375000000000      0.125000000000
     -0.291666666667      0.375000000000      0.125000000000
     -0.208333333333      0.375000000000      0.125000000000
     -0.125000000000      0.375000000000      0.125000000000
      0.458333333333      0.458333333333      0.125000000000
     -0.458333333333      0.458333333333      0.125000000000
     -0.375000000000      0.458333333333      0.125000000000
     -0.291666666667      0.458333333333      0.125000000000
     -0.208333333333      0.458333333333      0.125000000000
     -0.125000000000      0.458333333333      0.125000000000
     -0.458333333333     -0.458333333333      0.125000000000
     -0.375000000000     -0.458333333333      0.125000000000
     -0.291666666667     -0.458333333333      0.125000000000
     -0.208333333333     -0.458333333333      0.125000000000
     -0.375000000000     -0.375000000000      0.125000000000
     -0.291666666667     -0.375000000000      0.125000000000
     -0.208333333333     -0.375000000000      0.125000000000
     -0.291666666667     -0.291666666667      0.125000000000
     -0.208333333333     -0.291666666667      0.125000000000
     -0.208333333333     -0.208333333333      0.125000000000
      0.208333333333      0.208333333333      0.208333333333
      0.291666666667      0.208333333333      0.208333333333
      0.375000000000      0.208333333333      0.208333333333
      0.458333333333      0.208333333333      0.208333333333
     -0.458333333333      0.208333333333      0.208333333333
     -0.375000000000      0.208333333333      0.208333333333
     -0.291666666667      0.208333333333      0.208333333333
     -0.208333333333      0.208333333333      0.208333333333
      0.291666666667      0.291666666667      0.208333333333
      0.375000000000      0.291666666667      0.208333333333
      0.458333333333      0.291666666667      0.208333333333
     -0.458333333333      0.291666666667      0.208333333333
     -0.375000000000      0.291666666667      0.208333333333
     -0.291666666667      0.291666666667      0.208333333333
     -0.208333333333      0.291666666667      0.208333333333
      0.375000000000      0.375000000000      0.208333333333
      0.458333333333      0.375000000000      0.208333333333
     -0.458333333333      0.375000000000      0.208333333333
     -0.375000000000      0.375000000000      0.208333333333
     -0.291666666667      0.375000000000      0.208333333333
     -0.208333333333      0.375000000000      0.208333333333
      0.458333333333      0.458333333333      0.208333333333
     -0.458333333333      0.458333333333      0.208333333333
     -0.375000000000      0.458333333333      0.208333333333
     -0.291666666667      0.458333333333      0.208333333333
     -0.208333333333      0.458333333333      0.208333333333
     -0.458333333333     -0.458333333333      0.208333333333
     -0.375000000000     -0.458333333333      0.208333333333
     -0.291666666667     -0.458333333333      0.208333333333
     -0.375000000000     -0.375000000000      0.208333333333
     -0.291666666667     -0.375000000000      0.208333333333
     -0.291666666667     -0.291666666667      0.208333333333
      0.291666666667      0.291666666667      0.291666666667
      0.375000000000      0.291666666667      0.291666666667
      0.458333333333      0.291666666667      0.291666666667
     -0.458333333333      0.291666666667      0.291666666667
     -0.375000000000      0.291666666667      0.291666666667
     -0.291666666667      0.291666666667      0.291666666667
      0.375000000000      0.375000000000      0.291666666667
      0.458333333333      0.375000000000      0.291666666667
     -0.458333333333      0.375000000000      0.291666666667
     -0.375000000000      0.375000000000      0.291666666667
     -0.291666666667      0.375000000000      0.291666666667
      0.458333333333      0.458333333333      0.291666666667
     -0.458333333333      0.458333333333      0.291666666667
     -0.375000000000      0.458333333333      0.291666666667
     -0.291666666667      0.458333333333      0.291666666667
     -0.458333333333     -0.458333333333      0.291666666667
     -0.375000000000     -0.458333333333      0.291666666667
     -0.375000000000     -0.375000000000      0.291666666667
      0.375000000000      0.375000000000      0.375000000000
      0.458333333333      0.375000000000      0.375000000000
     -0.458333333333      0.375000000000      0.375000000000
     -0.375000000000      0.375000000000      0.375000000000
      0.458333333333      0.458333333333      0.375000000000
     -0.458333333333      0.458333333333      0.375000000000
     -0.375000000000      0.458333333333      0.375000000000
     -0.458333333333     -0.458333333333      0.375000000000
      0.458333333333      0.458333333333      0.458333333333
     -0.458333333333      0.458333333333      0.458333333333
     -0.041666666667     -0.041666666667     -0.041666666667
     -0.125000000000     -0.041666666667     -0.041666666667
      0.041666666667      0.125000000000      0.041666666667
     -0.041666666667     -0.125000000000     -0.041666666667
      0.041666666667      0.041666666667      0.125000000000
     -0.041666666667     -0.041666666667     -0.125000000000
     -0.208333333333     -0.041666666667     -0.041666666667
      0.041666666667      0.208333333333      0.041666666667
     -0.041666666667     -0.208333333333     -0.041666666667
      0.041666666667      0.041666666667      0.208333333333
     -0.041666666667     -0.041666666667     -0.208333333333
     -0.291666666667     -0.041666666667     -0.041666666667
      0.041666666667      0.291666666667      0.041666666667
     -0.041666666667     -0.291666666667     -0.041666666667
      0.041666666667      0.041666666667      0.291666666667
     -0.041666666667     -0.041666666667     -0.291666666667
     -0.375000000000     -0.041666666667     -0.041666666667
      0.041666666667      0.375000000000      0.041666666667
     -0.041666666667     -0.375000000000     -0.041666666667
      0.041666666667      0.041666666667      0.375000000000
     -0.041666666667     -0.041666666667     -0.375000000000
     -0.458333333333     -0.041666666667     -0.041666666667
      0.041666666667      0.458333333333      0.041666666667
     -0.041666666667     -0.458333333333     -0.041666666667
      0.041666666667      0.041666666667      0.458333333333
     -0.041666666667     -0.041666666667     -0.458333333333
      0.458333333333     -0.041666666667     -0.041666666667
      0.041666666667     -0.458333333333      0.041666666667
     -0.041666666667      0.458333333333     -0.041666666667
      0.041666666667      0.041666666667     -0.458333333333
     -0.041666666667     -0.041666666667      0.458333333333
      0.375000000000     -0.041666666667     -0.041666666667
      0.041666666667     -0.375000000000      0.041666666667
     -0.041666666667      0.375000000000     -0.041666666667
      0.041666666667      0.041666666667     -0.375000000000
     -0.041666666667     -0.041666666667      0.375000000000
      0.291666666667     -0.041666666667     -0.041666666667
      0.041666666667     -0.291666666667      0.041666666667
     -0.041666666667      0.291666666667     -0.041666666667
      0.041666666667      0.041666666667     -0.291666666667
     -0.041666666667     -0.041666666667      0.291666666667
      0.208333333333     -0.041666666667     -0.041666666667
      0.041666666667     -0.208333333333      0.041666666667
     -0.041666666667      0.208333333333     -0.041666666667
      0.041666666667      0.041666666667     -0.208333333333
     -0.041666666667     -0.041666666667      0.208333333333
      0.125000000000     -0.041666666667     -0.041666666667
      0.041666666667     -0.125000000000      0.041666666667
     -0.041666666667      0.125000000000     -0.041666666667
      0.041666666667      0.041666666667     -0.125000000000
     -0.041666666667     -0.041666666667      0.125000000000
      0.041666666667     -0.041666666667     -0.041666666667
      0.041666666667     -0.041666666667      0.041666666667
     -0.041666666667      0.041666666667     -0.041666666667
      0.041666666667      0.041666666667     -0.041666666667
     -0.041666666667     -0.041666666667      0.041666666667
     -0.125000000000     -0.125000000000     -0.041666666667
      0.041666666667      0.125000000000      0.125000000000
     -0.041666666667     -0.125000000000     -0.125000000000
      0.125000000000      0.041666666667      0.125000000000
     -0.125000000000     -0.041666666667     -0.125000000000
     -0.208333333333     -0.125000000000     -0.041666666667
      0.041666666667      0.208333333333      0.125000000000
     -0.041666666667     -0.208333333333     -0.125000000000
      0.125000000000      0.041666666667      0.208333333333
     -0.125000000000     -0.041666666667     -0.208333333333
     -0.208333333333     -0.041666666667     -0.125000000000
      0.208333333333      0.041666666667      0.125000000000
     -0.125000000000     -0.208333333333     -0.041666666667
      0.125000000000      0.208333333333      0.041666666667
     -0.041666666667     -0.125000000000     -0.208333333333
      0.041666666667      0.125000000000      0.208333333333
     -0.291666666667     -0.125000000000     -0.041666666667
      0.041666666667      0.291666666667      0.125000000000
     -0.041666666667     -0.291666666667     -0.125000000000
      0.125000000000      0.041666666667      0.291666666667
     -0.125000000000     -0.041666666667     -0.291666666667
     -0.291666666667     -0.041666666667     -0.125000000000
      0.291666666667      0.041666666667      0.125000000000
     -0.125000000000     -0.291666666667     -0.041666666667
      0.125000000000      0.291666666667      0.041666666667
     -0.041666666667     -0.125000000000     -0.291666666667
      0.041666666667      0.125000000000      0.291666666667
     -0.375000000000     -0.125000000000     -0.041666666667
      0.041666666667      0.375000000000      0.125000000000
     -0.041666666667     -0.375000000000     -0.125000000000
      0.125000000000      0.041666666667      0.375000000000
     -0.125000000000     -0.041666666667     -0.375000000000
     -0.375000000000     -0.041666666667     -0.125000000000
      0.375000000000      0.041666666667      0.125000000000
     -0.125000000000     -0.375000000000     -0.041666666667
      0.125000000000      0.375000000000      0.041666666667
     -0.041666666667     -0.125000000000     -0.375000000000
      0.041666666667      0.125000000000      0.375000000000
     -0.458333333333     -0.125000000000     -0.041666666667
      0.041666666667      0.458333333333      0.125000000000
     -0.041666666667     -0.458333333333     -0.125000000000
      0.125000000000      0.041666666667      0.458333333333
     -0.125000000000     -0.041666666667     -0.458333333333
     -0.458333333333     -0.041666666667     -0.125000000000
      0.458333333333      0.041666666667      0.125000000000
     -0.125000000000     -0.458333333333     -0.041666666667
      0.125000000000      0.458333333333      0.041666666667
     -0.041666666667     -0.125000000000     -0.458333333333
      0.041666666667      0.125000000000      0.458333333333
      0.458333333333     -0.125000000000     -0.041666666667
      0.041666666667     -0.458333333333      0.125000000000
     -0.041666666667      0.458333333333     -0.125000000000
      0.125000000000      0.041666666667     -0.458333333333
     -0.125000000000     -0.041666666667      0.458333333333
      0.458333333333     -0.041666666667     -0.125000000000
     -0.458333333333      0.041666666667      0.125000000000
     -0.125000000000      0.458333333333     -0.041666666667
      0.125000000000     -0.458333333333      0.041666666667
     -0.041666666667     -0.125000000000      0.458333333333
      0.041666666667      0.125000000000     -0.458333333333
      0.375000000000     -0.125000000000     -0.041666666667
      0.041666666667     -0.375000000000      0.125000000000
     -0.041666666667      0.375000000000     -0.125000000000
      0.125000000000      0.041666666667     -0.375000000000
     -0.125000000000     -0.041666666667      0.375000000000
      0.375000000000     -0.041666666667     -0.125000000000
     -0.375000000000      0.041666666667      0.125000000000
     -0.125000000000      0.375000000000     -0.041666666667
      0.125000000000     -0.375000000000      0.041666666667
     -0.041666666667     -0.125000000000      0.375000000000
      0.041666666667      0.125000000000     -0.375000000000
      0.291666666667     -0.125000000000     -0.041666666667
      0.041666666667     -0.291666666667      0.125000000000
     -0.041666666667      0.291666666667     -0.125000000000
      0.125000000000      0.041666666667     -0.291666666667
     -0.125000000000     -0.041666666667      0.291666666667
      0.291666666667     -0.041666666667     -0.125000000000
     -0.291666666667      0.041666666667      0.125000000000
     -0.125000000000      0.291666666667     -0.041666666667
      0.125000000000     -0.291666666667      0.041666666667
     -0.041666666667     -0.125000000000      0.291666666667
      0.041666666667      0.125000000000     -0.291666666667
      0.208333333333     -0.125000000000     -0.041666666667
      0.041666666667     -0.208333333333      0.125000000000
     -0.041666666667      0.208333333333     -0.125000000000
      0.125000000000      0.041666666667     -0.208333333333
     -0.125000000000     -0.041666666667      0.208333333333
      0.208333333333     -0.041666666667     -0.125000000000
     -0.208333333333      0.041666666667      0.125000000000
     -0.125000000000      0.208333333333     -0.041666666667
      0.125000000000     -0.208333333333      0.041666666667
     -0.041666666667     -0.125000000000      0.208333333333
      0.041666666667      0.125000000000     -0.208333333333
      0.125000000000     -0.125000000000     -0.041666666667
      0.041666666667     -0.125000000000      0.125000000000
     -0.041666666667      0.125000000000     -0.125000000000
      0.125000000000      0.041666666667     -0.125000000000
     -0.125000000000     -0.041666666667      0.125000000000
      0.125000000000     -0.041666666667     -0.125000000000
     -0.125000000000      0.041666666667      0.125000000000
     -0.125000000000      0.125000000000     -0.041666666667
      0.125000000000     -0.125000000000      0.041666666667
     -0.041666666667     -0.125000000000      0.125000000000
      0.041666666667      0.125000000000     -0.125000000000
      0.041666666667     -0.125000000000     -0.041666666667
      0.041666666667     -0.041666666667      0.125000000000
     -0.041666666667      0.041666666667     -0.125000000000
      0.125000000000      0.041666666667     -0.041666666667
     -0.125000000000     -0.041666666667      0.041666666667
      0.041666666667     -0.041666666667     -0.125000000000
     -0.041666666667      0.041666666667      0.125000000000
     -0.125000000000      0.041666666667     -0.041666666667
      0.125000000000     -0.041666666667      0.041666666667
     -0.041666666667     -0.125000000000      0.041666666667
      0.041666666667      0.125000000000     -0.041666666667
     -0.208333333333     -0.208333333333     -0.041666666667
      0.041666666667      0.208333333333      0.208333333333
     -0.041666666667     -0.208333333333     -0.208333333333
      0.208333333333      0.041666666667      0.208333333333
     -0.208333333333     -0.041666666667     -0.208333333333
     -0.291666666667     -0.208333333333     -0.041666666667
      0.041666666667      0.291666666667      0.208333333333
     -0.041666666667     -0.291666666667     -0.208333333333
      0.208333333333      0.041666666667      0.291666666667
     -0.208333333333     -0.041666666667     -0.291666666667
     -0.291666666667     -0.041666666667     -0.208333333333
      0.291666666667      0.041666666667      0.208333333333
     -0.208333333333     -0.291666666667     -0.041666666667
      0.208333333333      0.291666666667      0.041666666667
     -0.041666666667     -0.208333333333     -0.291666666667
      0.041666666667      0.208333333333      0.291666666667
     -0.375000000000     -0.208333333333     -0.041666666667
      0.041666666667      0.375000000000      0.208333333333
     -0.041666666667     -0.375000000000     -0.208333333333
      0.208333333333      0.041666666667      0.375000000000
     -0.208333333333     -0.041666666667     -0.375000000000
     -0.375000000000     -0.041666666667     -0.208333333333
      0.375000000000      0.041666666667      0.208333333333
     -0.208333333333     -0.375000000000     -0.041666666667
      0.208333333333      0.375000000000      0.041666666667
     -0.041666666667     -0.208333333333     -0.375000000000
      0.041666666667      0.208333333333      0.375000000000
     -0.458333333333     -0.208333333333     -0.041666666667
      0.041666666667      0.458333333333      0.208333333333
     -0.041666666667     -0.458333333333     -0.208333333333
      0.208333333333      0.041666666667      0.458333333333
     -0.208333333333     -0.041666666667     -0.458333333333
     -0.458333333333     -0.041666666667     -0.208333333333
      0.458333333333      0.041666666667      0.208333333333
     -0.208333333333     -0.458333333333     -0.041666666667
      0.208333333333      0.458333333333      0.041666666667
     -0.041666666667     -0.208333333333     -0.458333333333
      0.041666666667      0.208333333333      0.458333333333
      0.458333333333     -0.208333333333     -0.041666666667
      0.041666666667     -0.458333333333      0.208333333333
     -0.041666666667      0.458333333333     -0.208333333333
      0.208333333333      0.041666666667     -0.458333333333
     -0.208333333333     -0.041666666667      0.458333333333
      0.458333333333     -0.041666666667     -0.208333333333
     -0.458333333333      0.041666666667      0.208333333333
     -0.208333333333      0.458333333333     -0.041666666667
      0.208333333333     -0.458333333333      0.041666666667
     -0.041666666667     -0.208333333333      0.458333333333
      0.041666666667      0.208333333333     -0.458333333333
      0.375000000000     -0.208333333333     -0.041666666667
      0.041666666667     -0.375000000000      0.208333333333
     -0.041666666667      0.375000000000     -0.208333333333
      0.208333333333      0.041666666667     -0.375000000000
     -0.208333333333     -0.041666666667      0.375000000000
      0.375000000000     -0.041666666667     -0.208333333333
     -0.375000000000      0.041666666667      0.208333333333
     -0.208333333333      0.375000000000     -0.041666666667
      0.208333333333     -0.375000000000      0.041666666667
     -0.041666666667     -0.208333333333      0.375000000000
      0.041666666667      0.208333333333     -0.375000000000
      0.291666666667     -0.208333333333     -0.041666666667
      0.041666666667     -0.291666666667      0.208333333333
     -0.041666666667      0.291666666667     -0.208333333333
      0.208333333333      0.041666666667     -0.291666666667
     -0.208333333333     -0.041666666667      0.291666666667
      0.291666666667     -0.041666666667     -0.208333333333
     -0.291666666667      0.041666666667      0.208333333333
     -0.208333333333      0.291666666667     -0.041666666667
      0.208333333333     -0.291666666667      0.041666666667
     -0.041666666667     -0.208333333333      0.291666666667
      0.041666666667      0.208333333333     -0.291666666667
      0.208333333333     -0.208333333333     -0.041666666667
      0.041666666667     -0.208333333333      0.208333333333
     -0.041666666667      0.208333333333     -0.208333333333
      0.208333333333      0.041666666667     -0.208333333333
     -0.208333333333     -0.041666666667      0.208333333333
      0.208333333333     -0.041666666667     -0.208333333333
     -0.208333333333      0.041666666667      0.208333333333
     -0.208333333333      0.208333333333     -0.041666666667
      0.208333333333     -0.208333333333      0.041666666667
     -0.041666666667     -0.208333333333      0.208333333333
      0.041666666667      0.208333333333     -0.208333333333
      0.125000000000     -0.208333333333     -0.041666666667
      0.041666666667     -0.125000000000      0.208333333333
     -0.041666666667      0.125000000000     -0.208333333333
      0.208333333333      0.041666666667     -0.125000000000
     -0.208333333333     -0.041666666667      0.125000000000
      0.125000000000     -0.041666666667     -0.208333333333
     -0.125000000000      0.041666666667      0.208333333333
     -0.208333333333      0.125000000000     -0.041666666667
      0.208333333333     -0.125000000000      0.041666666667
     -0.041666666667     -0.208333333333      0.125000000000
      0.041666666667      0.208333333333     -0.125000000000
      0.041666666667     -0.208333333333     -0.041666666667
      0.041666666667     -0.041666666667      0.208333333333
     -0.041666666667      0.041666666667     -0.208333333333
      0.208333333333      0.041666666667     -0.041666666667
     -0.208333333333     -0.041666666667      0.041666666667
      0.041666666667     -0.041666666667     -0.208333333333
     -0.041666666667      0.041666666667      0.208333333333
     -0.208333333333      0.041666666667     -0.041666666667
      0.208333333333     -0.041666666667      0.041666666667
     -0.041666666667     -0.208333333333      0.041666666667
      0.041666666667      0.208333333333     -0.041666666667
     -0.291666666667     -0.291666666667     -0.041666666667
      0.041666666667      0.291666666667      0.291666666667
     -0.041666666667     -0.291666666667     -0.291666666667
      0.291666666667      0.041666666667      0.291666666667
     -0.291666666667     -0.041666666667     -0.291666666667
     -0.375000000000     -0.291666666667     -0.041666666667
      0.041666666667      0.375000000000      0.291666666667
     -0.041666666667     -0.375000000000     -0.291666666667
      0.291666666667      0.041666666667      0.375000000000
     -0.291666666667     -0.041666666667     -0.375000000000
     -0.375000000000     -0.041666666667     -0.291666666667
      0.375000000000      0.041666666667      0.291666666667