Bi2 Se3  [RHL,RHL1,hR5] (STD_PRIM doi:10
   1.00000000000000     
     9.5419441891995334   -2.0620671209691350   -0.0419869827777404
     9.5419441891995334    2.0620671209691350   -0.0419869827777404
     9.1119216786362003    0.0000000000000001    3.5036361041499466
   Bi   Se
     2     3
Direct
  0.5992797460367960  0.5992796830367944  0.5992797130367968
  0.4007204069632058  0.4007203439632042  0.4007203739632066
 -0.0000000000000000 -0.0000000000000000  0.0000000000000000
  0.7893853810252774  0.7893853180252758  0.7893853480252712
  0.2106146799747242  0.2106146799747242  0.2106146799747242
 
  0.00000000E+00  0.00000000E+00  0.00000000E+00
  0.00000000E+00  0.00000000E+00  0.00000000E+00
  0.00000000E+00  0.00000000E+00  0.00000000E+00
  0.00000000E+00  0.00000000E+00  0.00000000E+00
  0.00000000E+00  0.00000000E+00  0.00000000E+00
