
restart = plot
#wannier_plot = T

exclude_bands 1-24, 51-96
begin projections
   Bi:s;pz;px;py
end projections

dis_win_min  = -13
dis_win_max  =  13
dis_froz_min = -13
dis_froz_max =   4

dis_num_iter =   0
num_iter     =   0

#dis_mix_ratio   = 0.3
#hr_plot= T
write_hr = T
use_ws_distance = T

bands_plot = T
begin kpoint_path
   G   0.0000   0.0000   0.0000   L   0.5000   0.0000   0.0000
   L   0.5000   0.0000   0.0000   B1  0.5000   0.2424  -0.2424
   B   0.7576   0.5000   0.2424   Z   0.5000   0.5000   0.5000
   Z   0.5000   0.5000   0.5000   G   0.0000   0.0000   0.0000
   G   0.0000   0.0000   0.0000   X   0.3712   0.0000  -0.3712
   Q   0.6288   0.3712   0.0000   F   0.5000   0.5000   0.0000
   F   0.5000   0.5000   0.0000   P1  0.6288   0.6288   0.2424
   P1  0.6288   0.6288   0.2424   Z   0.5000   0.5000   0.5000
   L   0.5000   0.0000   0.0000   P   0.7576   0.3712   0.3712
end kpoint_path
bands_num_points = 40
bands_plot_format gnuplot xmgrace

# This part was generated automatically by VASP
num_bands = 26
num_wann = 16
spinors = .true.
begin unit_cell_cart
     4.0831593    -2.2603767    -0.0011295
     4.0831593     2.2603767    -0.0011295
     2.8328744     0.0000000     3.7089509
end unit_cell_cart
begin atoms_cart
Bi       4.9352984    -1.1301884     0.9746090
Bi       6.0638946     1.1301884     2.7320830
end atoms_cart
mp_grid =     8     8     8
begin kpoints
      0.000000000000      0.000000000000      0.000000000000
      0.125000000000     -0.000000000000      0.000000000000
      0.250000000000     -0.000000000000      0.000000000000
      0.375000000000     -0.000000000000      0.000000000000
      0.500000000000     -0.000000000000      0.000000000000
     -0.375000000000      0.000000000000      0.000000000000
     -0.250000000000      0.000000000000     -0.000000000000
     -0.125000000000      0.000000000000     -0.000000000000
     -0.000000000000      0.125000000000      0.000000000000
      0.125000000000      0.125000000000      0.000000000000
      0.250000000000      0.125000000000      0.000000000000
      0.375000000000      0.125000000000      0.000000000000
      0.500000000000      0.125000000000      0.000000000000
     -0.375000000000      0.125000000000     -0.000000000000
     -0.250000000000      0.125000000000     -0.000000000000
     -0.125000000000      0.125000000000      0.000000000000
     -0.000000000000      0.250000000000      0.000000000000
      0.125000000000      0.250000000000      0.000000000000
      0.250000000000      0.250000000000      0.000000000000
      0.375000000000      0.250000000000      0.000000000000
      0.500000000000      0.250000000000      0.000000000000
     -0.375000000000      0.250000000000      0.000000000000
     -0.250000000000      0.250000000000      0.000000000000
     -0.125000000000      0.250000000000      0.000000000000
     -0.000000000000      0.375000000000      0.000000000000
      0.125000000000      0.375000000000      0.000000000000
      0.250000000000      0.375000000000      0.000000000000
      0.375000000000      0.375000000000      0.000000000000
      0.500000000000      0.375000000000      0.000000000000
     -0.375000000000      0.375000000000      0.000000000000
     -0.250000000000      0.375000000000      0.000000000000
     -0.125000000000      0.375000000000      0.000000000000
     -0.000000000000      0.500000000000      0.000000000000
      0.125000000000      0.500000000000      0.000000000000
      0.250000000000      0.500000000000      0.000000000000
      0.375000000000      0.500000000000      0.000000000000
      0.500000000000      0.500000000000      0.000000000000
     -0.375000000000      0.500000000000      0.000000000000
     -0.250000000000      0.500000000000      0.000000000000
     -0.125000000000      0.500000000000      0.000000000000
      0.000000000000     -0.375000000000      0.000000000000
      0.125000000000     -0.375000000000     -0.000000000000
      0.250000000000     -0.375000000000      0.000000000000
      0.375000000000     -0.375000000000      0.000000000000
      0.500000000000     -0.375000000000      0.000000000000
     -0.375000000000     -0.375000000000      0.000000000000
     -0.250000000000     -0.375000000000     -0.000000000000
     -0.125000000000     -0.375000000000     -0.000000000000
      0.000000000000     -0.250000000000     -0.000000000000
      0.125000000000     -0.250000000000     -0.000000000000
      0.250000000000     -0.250000000000      0.000000000000
      0.375000000000     -0.250000000000      0.000000000000
      0.500000000000     -0.250000000000      0.000000000000
     -0.375000000000     -0.250000000000     -0.000000000000
     -0.250000000000     -0.250000000000     -0.000000000000
     -0.125000000000     -0.250000000000      0.000000000000
      0.000000000000     -0.125000000000     -0.000000000000
      0.125000000000     -0.125000000000      0.000000000000
      0.250000000000     -0.125000000000      0.000000000000
      0.375000000000     -0.125000000000      0.000000000000
      0.500000000000     -0.125000000000      0.000000000000
     -0.375000000000     -0.125000000000     -0.000000000000
     -0.250000000000     -0.125000000000      0.000000000000
     -0.125000000000     -0.125000000000     -0.000000000000
     -0.000000000000     -0.000000000000      0.125000000000
      0.125000000000     -0.000000000000      0.125000000000
      0.250000000000     -0.000000000000      0.125000000000
      0.375000000000     -0.000000000000      0.125000000000
      0.500000000000     -0.000000000000      0.125000000000
     -0.375000000000      0.000000000000      0.125000000000
     -0.250000000000      0.000000000000      0.125000000000
     -0.125000000000      0.000000000000      0.125000000000
     -0.000000000000      0.125000000000      0.125000000000
      0.125000000000      0.125000000000      0.125000000000
      0.250000000000      0.125000000000      0.125000000000
      0.375000000000      0.125000000000      0.125000000000
      0.500000000000      0.125000000000      0.125000000000
     -0.375000000000      0.125000000000      0.125000000000
     -0.250000000000      0.125000000000      0.125000000000
     -0.125000000000      0.125000000000      0.125000000000
     -0.000000000000      0.250000000000      0.125000000000
      0.125000000000      0.250000000000      0.125000000000
      0.250000000000      0.250000000000      0.125000000000
      0.375000000000      0.250000000000      0.125000000000
      0.500000000000      0.250000000000      0.125000000000
     -0.375000000000      0.250000000000      0.125000000000
     -0.250000000000      0.250000000000      0.125000000000
     -0.125000000000      0.250000000000      0.125000000000
     -0.000000000000      0.375000000000      0.125000000000
      0.125000000000      0.375000000000      0.125000000000
      0.250000000000      0.375000000000      0.125000000000
      0.375000000000      0.375000000000      0.125000000000
      0.500000000000      0.375000000000      0.125000000000
     -0.375000000000      0.375000000000      0.125000000000
     -0.250000000000      0.375000000000      0.125000000000
     -0.125000000000      0.375000000000      0.125000000000
     -0.000000000000      0.500000000000      0.125000000000
      0.125000000000      0.500000000000      0.125000000000
      0.250000000000      0.500000000000      0.125000000000
      0.375000000000      0.500000000000      0.125000000000
      0.500000000000      0.500000000000      0.125000000000
     -0.375000000000      0.500000000000      0.125000000000
     -0.250000000000      0.500000000000      0.125000000000
     -0.125000000000      0.500000000000      0.125000000000
      0.000000000000     -0.375000000000      0.125000000000
      0.125000000000     -0.375000000000      0.125000000000
      0.250000000000     -0.375000000000      0.125000000000
      0.375000000000     -0.375000000000      0.125000000000
      0.500000000000     -0.375000000000      0.125000000000
     -0.375000000000     -0.375000000000      0.125000000000
     -0.250000000000     -0.375000000000      0.125000000000
     -0.125000000000     -0.375000000000      0.125000000000
      0.000000000000     -0.250000000000      0.125000000000
      0.125000000000     -0.250000000000      0.125000000000
      0.250000000000     -0.250000000000      0.125000000000
      0.375000000000     -0.250000000000      0.125000000000
      0.500000000000     -0.250000000000      0.125000000000
     -0.375000000000     -0.250000000000      0.125000000000
     -0.250000000000     -0.250000000000      0.125000000000
     -0.125000000000     -0.250000000000      0.125000000000
      0.000000000000     -0.125000000000      0.125000000000
      0.125000000000     -0.125000000000      0.125000000000
      0.250000000000     -0.125000000000      0.125000000000
      0.375000000000     -0.125000000000      0.125000000000
      0.500000000000     -0.125000000000      0.125000000000
     -0.375000000000     -0.125000000000      0.125000000000
     -0.250000000000     -0.125000000000      0.125000000000
     -0.125000000000     -0.125000000000      0.125000000000
     -0.000000000000     -0.000000000000      0.250000000000
      0.125000000000     -0.000000000000      0.250000000000
      0.250000000000     -0.000000000000      0.250000000000
      0.375000000000     -0.000000000000      0.250000000000
      0.500000000000     -0.000000000000      0.250000000000
     -0.375000000000      0.000000000000      0.250000000000
     -0.250000000000      0.000000000000      0.250000000000
     -0.125000000000      0.000000000000      0.250000000000
     -0.000000000000      0.125000000000      0.250000000000
      0.125000000000      0.125000000000      0.250000000000
      0.250000000000      0.125000000000      0.250000000000
      0.375000000000      0.125000000000      0.250000000000
      0.500000000000      0.125000000000      0.250000000000
     -0.375000000000      0.125000000000      0.250000000000
     -0.250000000000      0.125000000000      0.250000000000
     -0.125000000000      0.125000000000      0.250000000000
     -0.000000000000      0.250000000000      0.250000000000
      0.125000000000      0.250000000000      0.250000000000
      0.250000000000      0.250000000000      0.250000000000
      0.375000000000      0.250000000000      0.250000000000
      0.500000000000      0.250000000000      0.250000000000
     -0.375000000000      0.250000000000      0.250000000000
     -0.250000000000      0.250000000000      0.250000000000
     -0.125000000000      0.250000000000      0.250000000000
     -0.000000000000      0.375000000000      0.250000000000
      0.125000000000      0.375000000000      0.250000000000
      0.250000000000      0.375000000000      0.250000000000
      0.375000000000      0.375000000000      0.250000000000
      0.500000000000      0.375000000000      0.250000000000
     -0.375000000000      0.375000000000      0.250000000000
     -0.250000000000      0.375000000000      0.250000000000
     -0.125000000000      0.375000000000      0.250000000000
     -0.000000000000      0.500000000000      0.250000000000
      0.125000000000      0.500000000000      0.250000000000
      0.250000000000      0.500000000000      0.250000000000
      0.375000000000      0.500000000000      0.250000000000
      0.500000000000      0.500000000000      0.250000000000
     -0.375000000000      0.500000000000      0.250000000000
     -0.250000000000      0.500000000000      0.250000000000
     -0.125000000000      0.500000000000      0.250000000000
      0.000000000000     -0.375000000000      0.250000000000
      0.125000000000     -0.375000000000      0.250000000000
      0.250000000000     -0.375000000000      0.250000000000
      0.375000000000     -0.375000000000      0.250000000000
      0.500000000000     -0.375000000000      0.250000000000
     -0.375000000000     -0.375000000000      0.250000000000
     -0.250000000000     -0.375000000000      0.250000000000
     -0.125000000000     -0.375000000000      0.250000000000
      0.000000000000     -0.250000000000      0.250000000000
      0.125000000000     -0.250000000000      0.250000000000
      0.250000000000     -0.250000000000      0.250000000000
      0.375000000000     -0.250000000000      0.250000000000
      0.500000000000     -0.250000000000      0.250000000000
     -0.375000000000     -0.250000000000      0.250000000000
     -0.250000000000     -0.250000000000      0.250000000000
     -0.125000000000     -0.250000000000      0.250000000000
      0.000000000000     -0.125000000000      0.250000000000
      0.125000000000     -0.125000000000      0.250000000000
      0.250000000000     -0.125000000000      0.250000000000
      0.375000000000     -0.125000000000      0.250000000000
      0.500000000000     -0.125000000000      0.250000000000
     -0.375000000000     -0.125000000000      0.250000000000
     -0.250000000000     -0.125000000000      0.250000000000
     -0.125000000000     -0.125000000000      0.250000000000
     -0.000000000000     -0.000000000000      0.375000000000
      0.125000000000     -0.000000000000      0.375000000000
      0.250000000000     -0.000000000000      0.375000000000
      0.375000000000     -0.000000000000      0.375000000000
      0.500000000000     -0.000000000000      0.375000000000
     -0.375000000000      0.000000000000      0.375000000000
     -0.250000000000      0.000000000000      0.375000000000
     -0.125000000000      0.000000000000      0.375000000000
     -0.000000000000      0.125000000000      0.375000000000
      0.125000000000      0.125000000000      0.375000000000
      0.250000000000      0.125000000000      0.375000000000
      0.375000000000      0.125000000000      0.375000000000
      0.500000000000      0.125000000000      0.375000000000
     -0.375000000000      0.125000000000      0.375000000000
     -0.250000000000      0.125000000000      0.375000000000
     -0.125000000000      0.125000000000      0.375000000000
     -0.000000000000      0.250000000000      0.375000000000
      0.125000000000      0.250000000000      0.375000000000
      0.250000000000      0.250000000000      0.375000000000
      0.375000000000      0.250000000000      0.375000000000
      0.500000000000      0.250000000000      0.375000000000
     -0.375000000000      0.250000000000      0.375000000000
     -0.250000000000      0.250000000000      0.375000000000
     -0.125000000000      0.250000000000      0.375000000000
     -0.000000000000      0.375000000000      0.375000000000
      0.125000000000      0.375000000000      0.375000000000
      0.250000000000      0.375000000000      0.375000000000
      0.375000000000      0.375000000000      0.375000000000
      0.500000000000      0.375000000000      0.375000000000
     -0.375000000000      0.375000000000      0.375000000000
     -0.250000000000      0.375000000000      0.375000000000
     -0.125000000000      0.375000000000      0.375000000000
     -0.000000000000      0.500000000000      0.375000000000
      0.125000000000      0.500000000000      0.375000000000
      0.250000000000      0.500000000000      0.375000000000
      0.375000000000      0.500000000000      0.375000000000
      0.500000000000      0.500000000000      0.375000000000
     -0.375000000000      0.500000000000      0.375000000000
     -0.250000000000      0.500000000000      0.375000000000
     -0.125000000000      0.500000000000      0.375000000000
      0.000000000000     -0.375000000000      0.375000000000
      0.125000000000     -0.375000000000      0.375000000000
      0.250000000000     -0.375000000000      0.375000000000
      0.375000000000     -0.375000000000      0.375000000000
      0.500000000000     -0.375000000000      0.375000000000
     -0.375000000000     -0.375000000000      0.375000000000
     -0.250000000000     -0.375000000000      0.375000000000
     -0.125000000000     -0.375000000000      0.375000000000
      0.000000000000     -0.250000000000      0.375000000000
      0.125000000000     -0.250000000000      0.375000000000
      0.250000000000     -0.250000000000      0.375000000000
      0.375000000000     -0.250000000000      0.375000000000
      0.500000000000     -0.250000000000      0.375000000000
     -0.375000000000     -0.250000000000      0.375000000000
     -0.250000000000     -0.250000000000      0.375000000000
     -0.125000000000     -0.250000000000      0.375000000000
      0.000000000000     -0.125000000000      0.375000000000
      0.125000000000     -0.125000000000      0.375000000000
      0.250000000000     -0.125000000000      0.375000000000
      0.375000000000     -0.125000000000      0.375000000000
      0.500000000000     -0.125000000000      0.375000000000
     -0.375000000000     -0.125000000000      0.375000000000
     -0.250000000000     -0.125000000000      0.375000000000
     -0.125000000000     -0.125000000000      0.375000000000
     -0.000000000000     -0.000000000000      0.500000000000
      0.125000000000     -0.000000000000      0.500000000000
      0.250000000000     -0.000000000000      0.500000000000
      0.375000000000     -0.000000000000      0.500000000000
      0.500000000000     -0.000000000000      0.500000000000
     -0.375000000000      0.000000000000      0.500000000000
     -0.250000000000      0.000000000000      0.500000000000
     -0.125000000000      0.000000000000      0.500000000000
     -0.000000000000      0.125000000000      0.500000000000
      0.125000000000      0.125000000000      0.500000000000
      0.250000000000      0.125000000000      0.500000000000
      0.375000000000      0.125000000000      0.500000000000
      0.500000000000      0.125000000000      0.500000000000
     -0.375000000000      0.125000000000      0.500000000000
     -0.250000000000      0.125000000000      0.500000000000
     -0.125000000000      0.125000000000      0.500000000000
     -0.000000000000      0.250000000000      0.500000000000
      0.125000000000      0.250000000000      0.500000000000
      0.250000000000      0.250000000000      0.500000000000
      0.375000000000      0.250000000000      0.500000000000
      0.500000000000      0.250000000000      0.500000000000
     -0.375000000000      0.250000000000      0.500000000000
     -0.250000000000      0.250000000000      0.500000000000
     -0.125000000000      0.250000000000      0.500000000000
     -0.000000000000      0.375000000000      0.500000000000
      0.125000000000      0.375000000000      0.500000000000
      0.250000000000      0.375000000000      0.500000000000
      0.375000000000      0.375000000000      0.500000000000
      0.500000000000      0.375000000000      0.500000000000
     -0.375000000000      0.375000000000      0.500000000000
     -0.250000000000      0.375000000000      0.500000000000
     -0.125000000000      0.375000000000      0.500000000000
     -0.000000000000      0.500000000000      0.500000000000
      0.125000000000      0.500000000000      0.500000000000
      0.250000000000      0.500000000000      0.500000000000
      0.375000000000      0.500000000000      0.500000000000
      0.500000000000      0.500000000000      0.500000000000
     -0.375000000000      0.500000000000      0.500000000000
     -0.250000000000      0.500000000000      0.500000000000
     -0.125000000000      0.500000000000      0.500000000000
      0.000000000000     -0.375000000000      0.500000000000
      0.125000000000     -0.375000000000      0.500000000000
      0.250000000000     -0.375000000000      0.500000000000
      0.375000000000     -0.375000000000      0.500000000000
      0.500000000000     -0.375000000000      0.500000000000
     -0.375000000000     -0.375000000000      0.500000000000
     -0.250000000000     -0.375000000000      0.500000000000
     -0.125000000000     -0.375000000000      0.500000000000
      0.000000000000     -0.250000000000      0.500000000000
      0.125000000000     -0.250000000000      0.500000000000
      0.250000000000     -0.250000000000      0.500000000000
      0.375000000000     -0.250000000000      0.500000000000
      0.500000000000     -0.250000000000      0.500000000000
     -0.375000000000     -0.250000000000      0.500000000000
     -0.250000000000     -0.250000000000      0.500000000000
     -0.125000000000     -0.250000000000      0.500000000000
      0.000000000000     -0.125000000000      0.500000000000
      0.125000000000     -0.125000000000      0.500000000000
      0.250000000000     -0.125000000000      0.500000000000
      0.375000000000     -0.125000000000      0.500000000000
      0.500000000000     -0.125000000000      0.500000000000
     -0.375000000000     -0.125000000000      0.500000000000
     -0.250000000000     -0.125000000000      0.500000000000
     -0.125000000000     -0.125000000000      0.500000000000
      0.000000000000      0.000000000000     -0.375000000000
      0.125000000000     -0.000000000000     -0.375000000000
      0.250000000000     -0.000000000000     -0.375000000000
      0.375000000000     -0.000000000000     -0.375000000000
      0.500000000000     -0.000000000000     -0.375000000000
     -0.375000000000      0.000000000000     -0.375000000000
     -0.250000000000      0.000000000000     -0.375000000000
     -0.125000000000      0.000000000000     -0.375000000000
     -0.000000000000      0.125000000000     -0.375000000000
      0.125000000000      0.125000000000     -0.375000000000
      0.250000000000      0.125000000000     -0.375000000000
      0.375000000000      0.125000000000     -0.375000000000
      0.500000000000      0.125000000000     -0.375000000000
     -0.375000000000      0.125000000000     -0.375000000000
     -0.250000000000      0.125000000000     -0.375000000000
     -0.125000000000      0.125000000000     -0.375000000000
     -0.000000000000      0.250000000000     -0.375000000000
      0.125000000000      0.250000000000     -0.375000000000
      0.250000000000      0.250000000000     -0.375000000000
      0.375000000000      0.250000000000     -0.375000000000
      0.500000000000      0.250000000000     -0.375000000000
     -0.375000000000      0.250000000000     -0.375000000000
     -0.250000000000      0.250000000000     -0.375000000000
     -0.125000000000      0.250000000000     -0.375000000000
     -0.000000000000      0.375000000000     -0.375000000000
      0.125000000000      0.375000000000     -0.375000000000
      0.250000000000      0.375000000000     -0.375000000000
      0.375000000000      0.375000000000     -0.375000000000
      0.500000000000      0.375000000000     -0.375000000000
     -0.375000000000      0.375000000000     -0.375000000000
     -0.250000000000      0.375000000000     -0.375000000000
     -0.125000000000      0.375000000000     -0.375000000000
     -0.000000000000      0.500000000000     -0.375000000000
      0.125000000000      0.500000000000     -0.375000000000
      0.250000000000      0.500000000000     -0.375000000000
      0.375000000000      0.500000000000     -0.375000000000
      0.500000000000      0.500000000000     -0.375000000000
     -0.375000000000      0.500000000000     -0.375000000000
     -0.250000000000      0.500000000000     -0.375000000000
     -0.125000000000      0.500000000000     -0.375000000000
      0.000000000000     -0.375000000000     -0.375000000000
      0.125000000000     -0.375000000000     -0.375000000000
      0.250000000000     -0.375000000000     -0.375000000000
      0.375000000000     -0.375000000000     -0.375000000000
      0.500000000000     -0.375000000000     -0.375000000000
     -0.375000000000     -0.375000000000     -0.375000000000
     -0.250000000000     -0.375000000000     -0.375000000000
     -0.125000000000     -0.375000000000     -0.375000000000
      0.000000000000     -0.250000000000     -0.375000000000
      0.125000000000     -0.250000000000     -0.375000000000
      0.250000000000     -0.250000000000     -0.375000000000
      0.375000000000     -0.250000000000     -0.375000000000
      0.500000000000     -0.250000000000     -0.375000000000
     -0.375000000000     -0.250000000000     -0.375000000000
     -0.250000000000     -0.250000000000     -0.375000000000
     -0.125000000000     -0.250000000000     -0.375000000000
      0.000000000000     -0.125000000000     -0.375000000000
      0.125000000000     -0.125000000000     -0.375000000000
      0.250000000000     -0.125000000000     -0.375000000000
      0.375000000000     -0.125000000000     -0.375000000000
      0.500000000000     -0.125000000000     -0.375000000000
     -0.375000000000     -0.125000000000     -0.375000000000
     -0.250000000000     -0.125000000000     -0.375000000000
     -0.125000000000     -0.125000000000     -0.375000000000
      0.000000000000      0.000000000000     -0.250000000000
      0.125000000000     -0.000000000000     -0.250000000000
      0.250000000000     -0.000000000000     -0.250000000000
      0.375000000000     -0.000000000000     -0.250000000000
      0.500000000000     -0.000000000000     -0.250000000000
     -0.375000000000      0.000000000000     -0.250000000000
     -0.250000000000      0.000000000000     -0.250000000000
     -0.125000000000      0.000000000000     -0.250000000000
     -0.000000000000      0.125000000000     -0.250000000000
      0.125000000000      0.125000000000     -0.250000000000
      0.250000000000      0.125000000000     -0.250000000000
      0.375000000000      0.125000000000     -0.250000000000
      0.500000000000      0.125000000000     -0.250000000000
     -0.375000000000      0.125000000000     -0.250000000000
     -0.250000000000      0.125000000000     -0.250000000000
     -0.125000000000      0.125000000000     -0.250000000000
     -0.000000000000      0.250000000000     -0.250000000000
      0.125000000000      0.250000000000     -0.250000000000
      0.250000000000      0.250000000000     -0.250000000000
      0.375000000000      0.250000000000     -0.250000000000
      0.500000000000      0.250000000000     -0.250000000000
     -0.375000000000      0.250000000000     -0.250000000000
     -0.250000000000      0.250000000000     -0.250000000000
     -0.125000000000      0.250000000000     -0.250000000000
     -0.000000000000      0.375000000000     -0.250000000000
      0.125000000000      0.375000000000     -0.250000000000
      0.250000000000      0.375000000000     -0.250000000000
      0.375000000000      0.375000000000     -0.250000000000
      0.500000000000      0.375000000000     -0.250000000000
     -0.375000000000      0.375000000000     -0.250000000000
     -0.250000000000      0.375000000000     -0.250000000000
     -0.125000000000      0.375000000000     -0.250000000000
     -0.000000000000      0.500000000000     -0.250000000000
      0.125000000000      0.500000000000     -0.250000000000
      0.250000000000      0.500000000000     -0.250000000000
      0.375000000000      0.500000000000     -0.250000000000
      0.500000000000      0.500000000000     -0.250000000000
     -0.375000000000      0.500000000000     -0.250000000000
     -0.250000000000      0.500000000000     -0.250000000000
     -0.125000000000      0.500000000000     -0.250000000000
      0.000000000000     -0.375000000000     -0.250000000000
      0.125000000000     -0.375000000000     -0.250000000000
      0.250000000000     -0.375000000000     -0.250000000000
      0.375000000000     -0.375000000000     -0.250000000000
      0.500000000000     -0.375000000000     -0.250000000000
     -0.375000000000     -0.375000000000     -0.250000000000
     -0.250000000000     -0.375000000000     -0.250000000000
     -0.125000000000     -0.375000000000     -0.250000000000
      0.000000000000     -0.250000000000     -0.250000000000
      0.125000000000     -0.250000000000     -0.250000000000
      0.250000000000     -0.250000000000     -0.250000000000
      0.375000000000     -0.250000000000     -0.250000000000
      0.500000000000     -0.250000000000     -0.250000000000
     -0.375000000000     -0.250000000000     -0.250000000000
     -0.250000000000     -0.250000000000     -0.250000000000
     -0.125000000000     -0.250000000000     -0.250000000000
      0.000000000000     -0.125000000000     -0.250000000000
      0.125000000000     -0.125000000000     -0.250000000000
      0.250000000000     -0.125000000000     -0.250000000000
      0.375000000000     -0.125000000000     -0.250000000000
      0.500000000000     -0.125000000000     -0.250000000000
     -0.375000000000     -0.125000000000     -0.250000000000
     -0.250000000000     -0.125000000000     -0.250000000000
     -0.125000000000     -0.125000000000     -0.250000000000
      0.000000000000      0.000000000000     -0.125000000000
      0.125000000000     -0.000000000000     -0.125000000000
      0.250000000000     -0.000000000000     -0.125000000000
      0.375000000000     -0.000000000000     -0.125000000000
      0.500000000000     -0.000000000000     -0.125000000000
     -0.375000000000      0.000000000000     -0.125000000000
     -0.250000000000      0.000000000000     -0.125000000000
     -0.125000000000      0.000000000000     -0.125000000000
     -0.000000000000      0.125000000000     -0.125000000000
      0.125000000000      0.125000000000     -0.125000000000
      0.250000000000      0.125000000000     -0.125000000000
      0.375000000000      0.125000000000     -0.125000000000
      0.500000000000      0.125000000000     -0.125000000000
     -0.375000000000      0.125000000000     -0.125000000000
     -0.250000000000      0.125000000000     -0.125000000000
     -0.125000000000      0.125000000000     -0.125000000000
     -0.000000000000      0.250000000000     -0.125000000000
      0.125000000000      0.250000000000     -0.125000000000
      0.250000000000      0.250000000000     -0.125000000000
      0.375000000000      0.250000000000     -0.125000000000